Minimize
2 p0_0_0 + 4 p1_0_0 + 2 p0_0_1 + 4 p1_0_1 + 2 p0_0_2 + 4 p1_0_2 + 2 p0_0_3 + 4 p1_0_3 + 2 p0_0_4 + 4 p1_0_4 + 2 p0_0_5 + 4 p1_0_5 + 2 p0_0_6 + 4 p1_0_6 + 2 p0_0_7 + 4 p1_0_7 + 2 p0_0_8 + 4 p1_0_8 + 2 p0_0_9 + 4 p1_0_9 + 2 p0_0_10 + 4 p1_0_10 + 2 p0_0_11 + 4 p1_0_11 + 2 p0_0_12 + 4 p1_0_12 + 2 p0_0_13 + 4 p1_0_13 + 2 p0_0_14 + 4 p1_0_14 + 2 p0_0_15 + 4 p1_0_15 + 2 p0_1_0 + 4 p1_1_0 + 2 p0_1_1 + 4 p1_1_1 + 2 p0_1_2 + 4 p1_1_2 + 2 p0_1_3 + 4 p1_1_3 + 2 p0_1_4 + 4 p1_1_4 + 2 p0_1_5 + 4 p1_1_5 + 2 p0_1_6 + 4 p1_1_6 + 2 p0_1_7 + 4 p1_1_7 + 2 p0_1_8 + 4 p1_1_8 + 2 p0_1_9 + 4 p1_1_9 + 2 p0_1_10 + 4 p1_1_10 + 2 p0_1_11 + 4 p1_1_11 + 2 p0_1_12 + 4 p1_1_12 + 2 p0_1_13 + 4 p1_1_13 + 2 p0_1_14 + 4 p1_1_14 + 2 p0_1_15 + 4 p1_1_15
Subject to
x0_0 + x0_1 + x0_2 + x0_3 + x0_4 + x0_5 + x0_6 + x0_7 + x0_8 + x0_9 + x0_10 + x0_11 + x0_12 + x0_13 + x0_14 + x0_15 + x0_16 + x0_17 + x0_18 + x0_19 + x0_20 + x0_21 + x0_22 + x0_23 + x0_24 + x0_25 + x0_26 + x0_27 + x0_28 + x0_29 + x0_30 + x0_31 + x0_32 + x0_33 + x0_34 + x0_35 + x0_36 + x0_37 + x0_38 + x0_39 + x0_40 + x0_41 + x0_42 + x0_43 + x0_44 + x0_45 + x0_46 + x0_47 + x0_48 + x0_49 + x0_50 + x0_51 + x0_52 + x0_53 + x0_54 + x0_55 + x0_56 + x0_57 + x0_58 + x0_59 + x0_60 + x0_61 + x0_62 + x0_63 >= 1
x0_0 + x0_1 + x0_2 + x0_3 - A0_0 >= 0
A0_0 - x0_0 >= 0
A0_0 - x0_1 >= 0
A0_0 - x0_2 >= 0
A0_0 - x0_3 >= 0
x0_4 + x0_5 + x0_6 + x0_7 - A0_1 >= 0
A0_1 - x0_4 >= 0
A0_1 - x0_5 >= 0
A0_1 - x0_6 >= 0
A0_1 - x0_7 >= 0
x0_8 + x0_9 + x0_10 + x0_11 - A0_2 >= 0
A0_2 - x0_8 >= 0
A0_2 - x0_9 >= 0
A0_2 - x0_10 >= 0
A0_2 - x0_11 >= 0
x0_12 + x0_13 + x0_14 + x0_15 - A0_3 >= 0
A0_3 - x0_12 >= 0
A0_3 - x0_13 >= 0
A0_3 - x0_14 >= 0
A0_3 - x0_15 >= 0
x0_16 + x0_17 + x0_18 + x0_19 - A0_4 >= 0
A0_4 - x0_16 >= 0
A0_4 - x0_17 >= 0
A0_4 - x0_18 >= 0
A0_4 - x0_19 >= 0
x0_20 + x0_21 + x0_22 + x0_23 - A0_5 >= 0
A0_5 - x0_20 >= 0
A0_5 - x0_21 >= 0
A0_5 - x0_22 >= 0
A0_5 - x0_23 >= 0
x0_24 + x0_25 + x0_26 + x0_27 - A0_6 >= 0
A0_6 - x0_24 >= 0
A0_6 - x0_25 >= 0
A0_6 - x0_26 >= 0
A0_6 - x0_27 >= 0
x0_28 + x0_29 + x0_30 + x0_31 - A0_7 >= 0
A0_7 - x0_28 >= 0
A0_7 - x0_29 >= 0
A0_7 - x0_30 >= 0
A0_7 - x0_31 >= 0
x0_32 + x0_33 + x0_34 + x0_35 - A0_8 >= 0
A0_8 - x0_32 >= 0
A0_8 - x0_33 >= 0
A0_8 - x0_34 >= 0
A0_8 - x0_35 >= 0
x0_36 + x0_37 + x0_38 + x0_39 - A0_9 >= 0
A0_9 - x0_36 >= 0
A0_9 - x0_37 >= 0
A0_9 - x0_38 >= 0
A0_9 - x0_39 >= 0
x0_40 + x0_41 + x0_42 + x0_43 - A0_10 >= 0
A0_10 - x0_40 >= 0
A0_10 - x0_41 >= 0
A0_10 - x0_42 >= 0
A0_10 - x0_43 >= 0
x0_44 + x0_45 + x0_46 + x0_47 - A0_11 >= 0
A0_11 - x0_44 >= 0
A0_11 - x0_45 >= 0
A0_11 - x0_46 >= 0
A0_11 - x0_47 >= 0
x0_48 + x0_49 + x0_50 + x0_51 - A0_12 >= 0
A0_12 - x0_48 >= 0
A0_12 - x0_49 >= 0
A0_12 - x0_50 >= 0
A0_12 - x0_51 >= 0
x0_52 + x0_53 + x0_54 + x0_55 - A0_13 >= 0
A0_13 - x0_52 >= 0
A0_13 - x0_53 >= 0
A0_13 - x0_54 >= 0
A0_13 - x0_55 >= 0
x0_56 + x0_57 + x0_58 + x0_59 - A0_14 >= 0
A0_14 - x0_56 >= 0
A0_14 - x0_57 >= 0
A0_14 - x0_58 >= 0
A0_14 - x0_59 >= 0
x0_60 + x0_61 + x0_62 + x0_63 - A0_15 >= 0
A0_15 - x0_60 >= 0
A0_15 - x0_61 >= 0
A0_15 - x0_62 >= 0
A0_15 - x0_63 >= 0
 + 1 y0_4 + 1 y0_8 -1 y0_12 + 1 t0_0 >= 0
 + 1 y0_4 + 1 y0_8 + 1 y0_12 -1 t0_0 >= 0
 -1 y0_4 + 1 y0_8 + 1 y0_12 + 1 t0_0 >= 0
 + 1 y0_4 -1 y0_8 + 1 y0_12 + 1 t0_0 >= 0
 -1 y0_4 -1 y0_8 + 1 y0_12 -1 t0_0 >= -2
 + 1 y0_4 -1 y0_8 -1 y0_12 -1 t0_0 >= -2
 -1 y0_4 + 1 y0_8 -1 y0_12 -1 t0_0 >= -2
 -1 y0_4 -1 y0_8 -1 y0_12 + 1 t0_0 >= -2
 + 1 y0_1 + 1 y0_9 -1 y0_13 + 1 t0_1 >= 0
 + 1 y0_1 + 1 y0_9 + 1 y0_13 -1 t0_1 >= 0
 -1 y0_1 + 1 y0_9 + 1 y0_13 + 1 t0_1 >= 0
 + 1 y0_1 -1 y0_9 + 1 y0_13 + 1 t0_1 >= 0
 -1 y0_1 -1 y0_9 + 1 y0_13 -1 t0_1 >= -2
 + 1 y0_1 -1 y0_9 -1 y0_13 -1 t0_1 >= -2
 -1 y0_1 + 1 y0_9 -1 y0_13 -1 t0_1 >= -2
 -1 y0_1 -1 y0_9 -1 y0_13 + 1 t0_1 >= -2
 + 1 y0_2 + 1 y0_6 -1 y0_14 + 1 t0_2 >= 0
 + 1 y0_2 + 1 y0_6 + 1 y0_14 -1 t0_2 >= 0
 -1 y0_2 + 1 y0_6 + 1 y0_14 + 1 t0_2 >= 0
 + 1 y0_2 -1 y0_6 + 1 y0_14 + 1 t0_2 >= 0
 -1 y0_2 -1 y0_6 + 1 y0_14 -1 t0_2 >= -2
 + 1 y0_2 -1 y0_6 -1 y0_14 -1 t0_2 >= -2
 -1 y0_2 + 1 y0_6 -1 y0_14 -1 t0_2 >= -2
 -1 y0_2 -1 y0_6 -1 y0_14 + 1 t0_2 >= -2
 + 1 y0_3 + 1 y0_7 -1 y0_11 + 1 t0_3 >= 0
 + 1 y0_3 + 1 y0_7 + 1 y0_11 -1 t0_3 >= 0
 -1 y0_3 + 1 y0_7 + 1 y0_11 + 1 t0_3 >= 0
 + 1 y0_3 -1 y0_7 + 1 y0_11 + 1 t0_3 >= 0
 -1 y0_3 -1 y0_7 + 1 y0_11 -1 t0_3 >= -2
 + 1 y0_3 -1 y0_7 -1 y0_11 -1 t0_3 >= -2
 -1 y0_3 + 1 y0_7 -1 y0_11 -1 t0_3 >= -2
 -1 y0_3 -1 y0_7 -1 y0_11 + 1 t0_3 >= -2
 + 1 y0_0 + 1 y0_4 -1 y0_8 + 1 t0_4 >= 0
 + 1 y0_0 + 1 y0_4 + 1 y0_8 -1 t0_4 >= 0
 -1 y0_0 + 1 y0_4 + 1 y0_8 + 1 t0_4 >= 0
 + 1 y0_0 -1 y0_4 + 1 y0_8 + 1 t0_4 >= 0
 -1 y0_0 -1 y0_4 + 1 y0_8 -1 t0_4 >= -2
 + 1 y0_0 -1 y0_4 -1 y0_8 -1 t0_4 >= -2
 -1 y0_0 + 1 y0_4 -1 y0_8 -1 t0_4 >= -2
 -1 y0_0 -1 y0_4 -1 y0_8 + 1 t0_4 >= -2
 + 1 y0_5 + 1 y0_9 -1 y0_13 + 1 t0_5 >= 0
 + 1 y0_5 + 1 y0_9 + 1 y0_13 -1 t0_5 >= 0
 -1 y0_5 + 1 y0_9 + 1 y0_13 + 1 t0_5 >= 0
 + 1 y0_5 -1 y0_9 + 1 y0_13 + 1 t0_5 >= 0
 -1 y0_5 -1 y0_9 + 1 y0_13 -1 t0_5 >= -2
 + 1 y0_5 -1 y0_9 -1 y0_13 -1 t0_5 >= -2
 -1 y0_5 + 1 y0_9 -1 y0_13 -1 t0_5 >= -2
 -1 y0_5 -1 y0_9 -1 y0_13 + 1 t0_5 >= -2
 + 1 y0_2 + 1 y0_10 -1 y0_14 + 1 t0_6 >= 0
 + 1 y0_2 + 1 y0_10 + 1 y0_14 -1 t0_6 >= 0
 -1 y0_2 + 1 y0_10 + 1 y0_14 + 1 t0_6 >= 0
 + 1 y0_2 -1 y0_10 + 1 y0_14 + 1 t0_6 >= 0
 -1 y0_2 -1 y0_10 + 1 y0_14 -1 t0_6 >= -2
 + 1 y0_2 -1 y0_10 -1 y0_14 -1 t0_6 >= -2
 -1 y0_2 + 1 y0_10 -1 y0_14 -1 t0_6 >= -2
 -1 y0_2 -1 y0_10 -1 y0_14 + 1 t0_6 >= -2
 + 1 y0_3 + 1 y0_7 -1 y0_15 + 1 t0_7 >= 0
 + 1 y0_3 + 1 y0_7 + 1 y0_15 -1 t0_7 >= 0
 -1 y0_3 + 1 y0_7 + 1 y0_15 + 1 t0_7 >= 0
 + 1 y0_3 -1 y0_7 + 1 y0_15 + 1 t0_7 >= 0
 -1 y0_3 -1 y0_7 + 1 y0_15 -1 t0_7 >= -2
 + 1 y0_3 -1 y0_7 -1 y0_15 -1 t0_7 >= -2
 -1 y0_3 + 1 y0_7 -1 y0_15 -1 t0_7 >= -2
 -1 y0_3 -1 y0_7 -1 y0_15 + 1 t0_7 >= -2
 + 1 y0_0 + 1 y0_4 -1 y0_12 + 1 t0_8 >= 0
 + 1 y0_0 + 1 y0_4 + 1 y0_12 -1 t0_8 >= 0
 -1 y0_0 + 1 y0_4 + 1 y0_12 + 1 t0_8 >= 0
 + 1 y0_0 -1 y0_4 + 1 y0_12 + 1 t0_8 >= 0
 -1 y0_0 -1 y0_4 + 1 y0_12 -1 t0_8 >= -2
 + 1 y0_0 -1 y0_4 -1 y0_12 -1 t0_8 >= -2
 -1 y0_0 + 1 y0_4 -1 y0_12 -1 t0_8 >= -2
 -1 y0_0 -1 y0_4 -1 y0_12 + 1 t0_8 >= -2
 + 1 y0_1 + 1 y0_5 -1 y0_9 + 1 t0_9 >= 0
 + 1 y0_1 + 1 y0_5 + 1 y0_9 -1 t0_9 >= 0
 -1 y0_1 + 1 y0_5 + 1 y0_9 + 1 t0_9 >= 0
 + 1 y0_1 -1 y0_5 + 1 y0_9 + 1 t0_9 >= 0
 -1 y0_1 -1 y0_5 + 1 y0_9 -1 t0_9 >= -2
 + 1 y0_1 -1 y0_5 -1 y0_9 -1 t0_9 >= -2
 -1 y0_1 + 1 y0_5 -1 y0_9 -1 t0_9 >= -2
 -1 y0_1 -1 y0_5 -1 y0_9 + 1 t0_9 >= -2
 + 1 y0_6 + 1 y0_10 -1 y0_14 + 1 t0_10 >= 0
 + 1 y0_6 + 1 y0_10 + 1 y0_14 -1 t0_10 >= 0
 -1 y0_6 + 1 y0_10 + 1 y0_14 + 1 t0_10 >= 0
 + 1 y0_6 -1 y0_10 + 1 y0_14 + 1 t0_10 >= 0
 -1 y0_6 -1 y0_10 + 1 y0_14 -1 t0_10 >= -2
 + 1 y0_6 -1 y0_10 -1 y0_14 -1 t0_10 >= -2
 -1 y0_6 + 1 y0_10 -1 y0_14 -1 t0_10 >= -2
 -1 y0_6 -1 y0_10 -1 y0_14 + 1 t0_10 >= -2
 + 1 y0_3 + 1 y0_11 -1 y0_15 + 1 t0_11 >= 0
 + 1 y0_3 + 1 y0_11 + 1 y0_15 -1 t0_11 >= 0
 -1 y0_3 + 1 y0_11 + 1 y0_15 + 1 t0_11 >= 0
 + 1 y0_3 -1 y0_11 + 1 y0_15 + 1 t0_11 >= 0
 -1 y0_3 -1 y0_11 + 1 y0_15 -1 t0_11 >= -2
 + 1 y0_3 -1 y0_11 -1 y0_15 -1 t0_11 >= -2
 -1 y0_3 + 1 y0_11 -1 y0_15 -1 t0_11 >= -2
 -1 y0_3 -1 y0_11 -1 y0_15 + 1 t0_11 >= -2
 + 1 y0_0 + 1 y0_8 -1 y0_12 + 1 t0_12 >= 0
 + 1 y0_0 + 1 y0_8 + 1 y0_12 -1 t0_12 >= 0
 -1 y0_0 + 1 y0_8 + 1 y0_12 + 1 t0_12 >= 0
 + 1 y0_0 -1 y0_8 + 1 y0_12 + 1 t0_12 >= 0
 -1 y0_0 -1 y0_8 + 1 y0_12 -1 t0_12 >= -2
 + 1 y0_0 -1 y0_8 -1 y0_12 -1 t0_12 >= -2
 -1 y0_0 + 1 y0_8 -1 y0_12 -1 t0_12 >= -2
 -1 y0_0 -1 y0_8 -1 y0_12 + 1 t0_12 >= -2
 + 1 y0_1 + 1 y0_5 -1 y0_13 + 1 t0_13 >= 0
 + 1 y0_1 + 1 y0_5 + 1 y0_13 -1 t0_13 >= 0
 -1 y0_1 + 1 y0_5 + 1 y0_13 + 1 t0_13 >= 0
 + 1 y0_1 -1 y0_5 + 1 y0_13 + 1 t0_13 >= 0
 -1 y0_1 -1 y0_5 + 1 y0_13 -1 t0_13 >= -2
 + 1 y0_1 -1 y0_5 -1 y0_13 -1 t0_13 >= -2
 -1 y0_1 + 1 y0_5 -1 y0_13 -1 t0_13 >= -2
 -1 y0_1 -1 y0_5 -1 y0_13 + 1 t0_13 >= -2
 + 1 y0_2 + 1 y0_6 -1 y0_10 + 1 t0_14 >= 0
 + 1 y0_2 + 1 y0_6 + 1 y0_10 -1 t0_14 >= 0
 -1 y0_2 + 1 y0_6 + 1 y0_10 + 1 t0_14 >= 0
 + 1 y0_2 -1 y0_6 + 1 y0_10 + 1 t0_14 >= 0
 -1 y0_2 -1 y0_6 + 1 y0_10 -1 t0_14 >= -2
 + 1 y0_2 -1 y0_6 -1 y0_10 -1 t0_14 >= -2
 -1 y0_2 + 1 y0_6 -1 y0_10 -1 t0_14 >= -2
 -1 y0_2 -1 y0_6 -1 y0_10 + 1 t0_14 >= -2
 + 1 y0_7 + 1 y0_11 -1 y0_15 + 1 t0_15 >= 0
 + 1 y0_7 + 1 y0_11 + 1 y0_15 -1 t0_15 >= 0
 -1 y0_7 + 1 y0_11 + 1 y0_15 + 1 t0_15 >= 0
 + 1 y0_7 -1 y0_11 + 1 y0_15 + 1 t0_15 >= 0
 -1 y0_7 -1 y0_11 + 1 y0_15 -1 t0_15 >= -2
 + 1 y0_7 -1 y0_11 -1 y0_15 -1 t0_15 >= -2
 -1 y0_7 + 1 y0_11 -1 y0_15 -1 t0_15 >= -2
 -1 y0_7 -1 y0_11 -1 y0_15 + 1 t0_15 >= -2
 + 1 y0_16 + 1 y0_20 -1 y0_24 + 1 t0_16 >= 0
 + 1 y0_16 + 1 y0_20 + 1 y0_24 -1 t0_16 >= 0
 -1 y0_16 + 1 y0_20 + 1 y0_24 + 1 t0_16 >= 0
 + 1 y0_16 -1 y0_20 + 1 y0_24 + 1 t0_16 >= 0
 -1 y0_16 -1 y0_20 + 1 y0_24 -1 t0_16 >= -2
 + 1 y0_16 -1 y0_20 -1 y0_24 -1 t0_16 >= -2
 -1 y0_16 + 1 y0_20 -1 y0_24 -1 t0_16 >= -2
 -1 y0_16 -1 y0_20 -1 y0_24 + 1 t0_16 >= -2
 + 1 y0_21 + 1 y0_25 -1 y0_29 + 1 t0_17 >= 0
 + 1 y0_21 + 1 y0_25 + 1 y0_29 -1 t0_17 >= 0
 -1 y0_21 + 1 y0_25 + 1 y0_29 + 1 t0_17 >= 0
 + 1 y0_21 -1 y0_25 + 1 y0_29 + 1 t0_17 >= 0
 -1 y0_21 -1 y0_25 + 1 y0_29 -1 t0_17 >= -2
 + 1 y0_21 -1 y0_25 -1 y0_29 -1 t0_17 >= -2
 -1 y0_21 + 1 y0_25 -1 y0_29 -1 t0_17 >= -2
 -1 y0_21 -1 y0_25 -1 y0_29 + 1 t0_17 >= -2
 + 1 y0_18 + 1 y0_26 -1 y0_30 + 1 t0_18 >= 0
 + 1 y0_18 + 1 y0_26 + 1 y0_30 -1 t0_18 >= 0
 -1 y0_18 + 1 y0_26 + 1 y0_30 + 1 t0_18 >= 0
 + 1 y0_18 -1 y0_26 + 1 y0_30 + 1 t0_18 >= 0
 -1 y0_18 -1 y0_26 + 1 y0_30 -1 t0_18 >= -2
 + 1 y0_18 -1 y0_26 -1 y0_30 -1 t0_18 >= -2
 -1 y0_18 + 1 y0_26 -1 y0_30 -1 t0_18 >= -2
 -1 y0_18 -1 y0_26 -1 y0_30 + 1 t0_18 >= -2
 + 1 y0_19 + 1 y0_23 -1 y0_31 + 1 t0_19 >= 0
 + 1 y0_19 + 1 y0_23 + 1 y0_31 -1 t0_19 >= 0
 -1 y0_19 + 1 y0_23 + 1 y0_31 + 1 t0_19 >= 0
 + 1 y0_19 -1 y0_23 + 1 y0_31 + 1 t0_19 >= 0
 -1 y0_19 -1 y0_23 + 1 y0_31 -1 t0_19 >= -2
 + 1 y0_19 -1 y0_23 -1 y0_31 -1 t0_19 >= -2
 -1 y0_19 + 1 y0_23 -1 y0_31 -1 t0_19 >= -2
 -1 y0_19 -1 y0_23 -1 y0_31 + 1 t0_19 >= -2
 + 1 y0_16 + 1 y0_20 -1 y0_28 + 1 t0_20 >= 0
 + 1 y0_16 + 1 y0_20 + 1 y0_28 -1 t0_20 >= 0
 -1 y0_16 + 1 y0_20 + 1 y0_28 + 1 t0_20 >= 0
 + 1 y0_16 -1 y0_20 + 1 y0_28 + 1 t0_20 >= 0
 -1 y0_16 -1 y0_20 + 1 y0_28 -1 t0_20 >= -2
 + 1 y0_16 -1 y0_20 -1 y0_28 -1 t0_20 >= -2
 -1 y0_16 + 1 y0_20 -1 y0_28 -1 t0_20 >= -2
 -1 y0_16 -1 y0_20 -1 y0_28 + 1 t0_20 >= -2
 + 1 y0_17 + 1 y0_21 -1 y0_25 + 1 t0_21 >= 0
 + 1 y0_17 + 1 y0_21 + 1 y0_25 -1 t0_21 >= 0
 -1 y0_17 + 1 y0_21 + 1 y0_25 + 1 t0_21 >= 0
 + 1 y0_17 -1 y0_21 + 1 y0_25 + 1 t0_21 >= 0
 -1 y0_17 -1 y0_21 + 1 y0_25 -1 t0_21 >= -2
 + 1 y0_17 -1 y0_21 -1 y0_25 -1 t0_21 >= -2
 -1 y0_17 + 1 y0_21 -1 y0_25 -1 t0_21 >= -2
 -1 y0_17 -1 y0_21 -1 y0_25 + 1 t0_21 >= -2
 + 1 y0_22 + 1 y0_26 -1 y0_30 + 1 t0_22 >= 0
 + 1 y0_22 + 1 y0_26 + 1 y0_30 -1 t0_22 >= 0
 -1 y0_22 + 1 y0_26 + 1 y0_30 + 1 t0_22 >= 0
 + 1 y0_22 -1 y0_26 + 1 y0_30 + 1 t0_22 >= 0
 -1 y0_22 -1 y0_26 + 1 y0_30 -1 t0_22 >= -2
 + 1 y0_22 -1 y0_26 -1 y0_30 -1 t0_22 >= -2
 -1 y0_22 + 1 y0_26 -1 y0_30 -1 t0_22 >= -2
 -1 y0_22 -1 y0_26 -1 y0_30 + 1 t0_22 >= -2
 + 1 y0_19 + 1 y0_27 -1 y0_31 + 1 t0_23 >= 0
 + 1 y0_19 + 1 y0_27 + 1 y0_31 -1 t0_23 >= 0
 -1 y0_19 + 1 y0_27 + 1 y0_31 + 1 t0_23 >= 0
 + 1 y0_19 -1 y0_27 + 1 y0_31 + 1 t0_23 >= 0
 -1 y0_19 -1 y0_27 + 1 y0_31 -1 t0_23 >= -2
 + 1 y0_19 -1 y0_27 -1 y0_31 -1 t0_23 >= -2
 -1 y0_19 + 1 y0_27 -1 y0_31 -1 t0_23 >= -2
 -1 y0_19 -1 y0_27 -1 y0_31 + 1 t0_23 >= -2
 + 1 y0_16 + 1 y0_24 -1 y0_28 + 1 t0_24 >= 0
 + 1 y0_16 + 1 y0_24 + 1 y0_28 -1 t0_24 >= 0
 -1 y0_16 + 1 y0_24 + 1 y0_28 + 1 t0_24 >= 0
 + 1 y0_16 -1 y0_24 + 1 y0_28 + 1 t0_24 >= 0
 -1 y0_16 -1 y0_24 + 1 y0_28 -1 t0_24 >= -2
 + 1 y0_16 -1 y0_24 -1 y0_28 -1 t0_24 >= -2
 -1 y0_16 + 1 y0_24 -1 y0_28 -1 t0_24 >= -2
 -1 y0_16 -1 y0_24 -1 y0_28 + 1 t0_24 >= -2
 + 1 y0_17 + 1 y0_21 -1 y0_29 + 1 t0_25 >= 0
 + 1 y0_17 + 1 y0_21 + 1 y0_29 -1 t0_25 >= 0
 -1 y0_17 + 1 y0_21 + 1 y0_29 + 1 t0_25 >= 0
 + 1 y0_17 -1 y0_21 + 1 y0_29 + 1 t0_25 >= 0
 -1 y0_17 -1 y0_21 + 1 y0_29 -1 t0_25 >= -2
 + 1 y0_17 -1 y0_21 -1 y0_29 -1 t0_25 >= -2
 -1 y0_17 + 1 y0_21 -1 y0_29 -1 t0_25 >= -2
 -1 y0_17 -1 y0_21 -1 y0_29 + 1 t0_25 >= -2
 + 1 y0_18 + 1 y0_22 -1 y0_26 + 1 t0_26 >= 0
 + 1 y0_18 + 1 y0_22 + 1 y0_26 -1 t0_26 >= 0
 -1 y0_18 + 1 y0_22 + 1 y0_26 + 1 t0_26 >= 0
 + 1 y0_18 -1 y0_22 + 1 y0_26 + 1 t0_26 >= 0
 -1 y0_18 -1 y0_22 + 1 y0_26 -1 t0_26 >= -2
 + 1 y0_18 -1 y0_22 -1 y0_26 -1 t0_26 >= -2
 -1 y0_18 + 1 y0_22 -1 y0_26 -1 t0_26 >= -2
 -1 y0_18 -1 y0_22 -1 y0_26 + 1 t0_26 >= -2
 + 1 y0_23 + 1 y0_27 -1 y0_31 + 1 t0_27 >= 0
 + 1 y0_23 + 1 y0_27 + 1 y0_31 -1 t0_27 >= 0
 -1 y0_23 + 1 y0_27 + 1 y0_31 + 1 t0_27 >= 0
 + 1 y0_23 -1 y0_27 + 1 y0_31 + 1 t0_27 >= 0
 -1 y0_23 -1 y0_27 + 1 y0_31 -1 t0_27 >= -2
 + 1 y0_23 -1 y0_27 -1 y0_31 -1 t0_27 >= -2
 -1 y0_23 + 1 y0_27 -1 y0_31 -1 t0_27 >= -2
 -1 y0_23 -1 y0_27 -1 y0_31 + 1 t0_27 >= -2
 + 1 y0_20 + 1 y0_24 -1 y0_28 + 1 t0_28 >= 0
 + 1 y0_20 + 1 y0_24 + 1 y0_28 -1 t0_28 >= 0
 -1 y0_20 + 1 y0_24 + 1 y0_28 + 1 t0_28 >= 0
 + 1 y0_20 -1 y0_24 + 1 y0_28 + 1 t0_28 >= 0
 -1 y0_20 -1 y0_24 + 1 y0_28 -1 t0_28 >= -2
 + 1 y0_20 -1 y0_24 -1 y0_28 -1 t0_28 >= -2
 -1 y0_20 + 1 y0_24 -1 y0_28 -1 t0_28 >= -2
 -1 y0_20 -1 y0_24 -1 y0_28 + 1 t0_28 >= -2
 + 1 y0_17 + 1 y0_25 -1 y0_29 + 1 t0_29 >= 0
 + 1 y0_17 + 1 y0_25 + 1 y0_29 -1 t0_29 >= 0
 -1 y0_17 + 1 y0_25 + 1 y0_29 + 1 t0_29 >= 0
 + 1 y0_17 -1 y0_25 + 1 y0_29 + 1 t0_29 >= 0
 -1 y0_17 -1 y0_25 + 1 y0_29 -1 t0_29 >= -2
 + 1 y0_17 -1 y0_25 -1 y0_29 -1 t0_29 >= -2
 -1 y0_17 + 1 y0_25 -1 y0_29 -1 t0_29 >= -2
 -1 y0_17 -1 y0_25 -1 y0_29 + 1 t0_29 >= -2
 + 1 y0_18 + 1 y0_22 -1 y0_30 + 1 t0_30 >= 0
 + 1 y0_18 + 1 y0_22 + 1 y0_30 -1 t0_30 >= 0
 -1 y0_18 + 1 y0_22 + 1 y0_30 + 1 t0_30 >= 0
 + 1 y0_18 -1 y0_22 + 1 y0_30 + 1 t0_30 >= 0
 -1 y0_18 -1 y0_22 + 1 y0_30 -1 t0_30 >= -2
 + 1 y0_18 -1 y0_22 -1 y0_30 -1 t0_30 >= -2
 -1 y0_18 + 1 y0_22 -1 y0_30 -1 t0_30 >= -2
 -1 y0_18 -1 y0_22 -1 y0_30 + 1 t0_30 >= -2
 + 1 y0_19 + 1 y0_23 -1 y0_27 + 1 t0_31 >= 0
 + 1 y0_19 + 1 y0_23 + 1 y0_27 -1 t0_31 >= 0
 -1 y0_19 + 1 y0_23 + 1 y0_27 + 1 t0_31 >= 0
 + 1 y0_19 -1 y0_23 + 1 y0_27 + 1 t0_31 >= 0
 -1 y0_19 -1 y0_23 + 1 y0_27 -1 t0_31 >= -2
 + 1 y0_19 -1 y0_23 -1 y0_27 -1 t0_31 >= -2
 -1 y0_19 + 1 y0_23 -1 y0_27 -1 t0_31 >= -2
 -1 y0_19 -1 y0_23 -1 y0_27 + 1 t0_31 >= -2
 + 1 y0_32 + 1 y0_36 -1 y0_40 + 1 t0_32 >= 0
 + 1 y0_32 + 1 y0_36 + 1 y0_40 -1 t0_32 >= 0
 -1 y0_32 + 1 y0_36 + 1 y0_40 + 1 t0_32 >= 0
 + 1 y0_32 -1 y0_36 + 1 y0_40 + 1 t0_32 >= 0
 -1 y0_32 -1 y0_36 + 1 y0_40 -1 t0_32 >= -2
 + 1 y0_32 -1 y0_36 -1 y0_40 -1 t0_32 >= -2
 -1 y0_32 + 1 y0_36 -1 y0_40 -1 t0_32 >= -2
 -1 y0_32 -1 y0_36 -1 y0_40 + 1 t0_32 >= -2
 + 1 y0_37 + 1 y0_41 -1 y0_45 + 1 t0_33 >= 0
 + 1 y0_37 + 1 y0_41 + 1 y0_45 -1 t0_33 >= 0
 -1 y0_37 + 1 y0_41 + 1 y0_45 + 1 t0_33 >= 0
 + 1 y0_37 -1 y0_41 + 1 y0_45 + 1 t0_33 >= 0
 -1 y0_37 -1 y0_41 + 1 y0_45 -1 t0_33 >= -2
 + 1 y0_37 -1 y0_41 -1 y0_45 -1 t0_33 >= -2
 -1 y0_37 + 1 y0_41 -1 y0_45 -1 t0_33 >= -2
 -1 y0_37 -1 y0_41 -1 y0_45 + 1 t0_33 >= -2
 + 1 y0_34 + 1 y0_42 -1 y0_46 + 1 t0_34 >= 0
 + 1 y0_34 + 1 y0_42 + 1 y0_46 -1 t0_34 >= 0
 -1 y0_34 + 1 y0_42 + 1 y0_46 + 1 t0_34 >= 0
 + 1 y0_34 -1 y0_42 + 1 y0_46 + 1 t0_34 >= 0
 -1 y0_34 -1 y0_42 + 1 y0_46 -1 t0_34 >= -2
 + 1 y0_34 -1 y0_42 -1 y0_46 -1 t0_34 >= -2
 -1 y0_34 + 1 y0_42 -1 y0_46 -1 t0_34 >= -2
 -1 y0_34 -1 y0_42 -1 y0_46 + 1 t0_34 >= -2
 + 1 y0_35 + 1 y0_39 -1 y0_47 + 1 t0_35 >= 0
 + 1 y0_35 + 1 y0_39 + 1 y0_47 -1 t0_35 >= 0
 -1 y0_35 + 1 y0_39 + 1 y0_47 + 1 t0_35 >= 0
 + 1 y0_35 -1 y0_39 + 1 y0_47 + 1 t0_35 >= 0
 -1 y0_35 -1 y0_39 + 1 y0_47 -1 t0_35 >= -2
 + 1 y0_35 -1 y0_39 -1 y0_47 -1 t0_35 >= -2
 -1 y0_35 + 1 y0_39 -1 y0_47 -1 t0_35 >= -2
 -1 y0_35 -1 y0_39 -1 y0_47 + 1 t0_35 >= -2
 + 1 y0_32 + 1 y0_36 -1 y0_44 + 1 t0_36 >= 0
 + 1 y0_32 + 1 y0_36 + 1 y0_44 -1 t0_36 >= 0
 -1 y0_32 + 1 y0_36 + 1 y0_44 + 1 t0_36 >= 0
 + 1 y0_32 -1 y0_36 + 1 y0_44 + 1 t0_36 >= 0
 -1 y0_32 -1 y0_36 + 1 y0_44 -1 t0_36 >= -2
 + 1 y0_32 -1 y0_36 -1 y0_44 -1 t0_36 >= -2
 -1 y0_32 + 1 y0_36 -1 y0_44 -1 t0_36 >= -2
 -1 y0_32 -1 y0_36 -1 y0_44 + 1 t0_36 >= -2
 + 1 y0_33 + 1 y0_37 -1 y0_41 + 1 t0_37 >= 0
 + 1 y0_33 + 1 y0_37 + 1 y0_41 -1 t0_37 >= 0
 -1 y0_33 + 1 y0_37 + 1 y0_41 + 1 t0_37 >= 0
 + 1 y0_33 -1 y0_37 + 1 y0_41 + 1 t0_37 >= 0
 -1 y0_33 -1 y0_37 + 1 y0_41 -1 t0_37 >= -2
 + 1 y0_33 -1 y0_37 -1 y0_41 -1 t0_37 >= -2
 -1 y0_33 + 1 y0_37 -1 y0_41 -1 t0_37 >= -2
 -1 y0_33 -1 y0_37 -1 y0_41 + 1 t0_37 >= -2
 + 1 y0_38 + 1 y0_42 -1 y0_46 + 1 t0_38 >= 0
 + 1 y0_38 + 1 y0_42 + 1 y0_46 -1 t0_38 >= 0
 -1 y0_38 + 1 y0_42 + 1 y0_46 + 1 t0_38 >= 0
 + 1 y0_38 -1 y0_42 + 1 y0_46 + 1 t0_38 >= 0
 -1 y0_38 -1 y0_42 + 1 y0_46 -1 t0_38 >= -2
 + 1 y0_38 -1 y0_42 -1 y0_46 -1 t0_38 >= -2
 -1 y0_38 + 1 y0_42 -1 y0_46 -1 t0_38 >= -2
 -1 y0_38 -1 y0_42 -1 y0_46 + 1 t0_38 >= -2
 + 1 y0_35 + 1 y0_43 -1 y0_47 + 1 t0_39 >= 0
 + 1 y0_35 + 1 y0_43 + 1 y0_47 -1 t0_39 >= 0
 -1 y0_35 + 1 y0_43 + 1 y0_47 + 1 t0_39 >= 0
 + 1 y0_35 -1 y0_43 + 1 y0_47 + 1 t0_39 >= 0
 -1 y0_35 -1 y0_43 + 1 y0_47 -1 t0_39 >= -2
 + 1 y0_35 -1 y0_43 -1 y0_47 -1 t0_39 >= -2
 -1 y0_35 + 1 y0_43 -1 y0_47 -1 t0_39 >= -2
 -1 y0_35 -1 y0_43 -1 y0_47 + 1 t0_39 >= -2
 + 1 y0_32 + 1 y0_40 -1 y0_44 + 1 t0_40 >= 0
 + 1 y0_32 + 1 y0_40 + 1 y0_44 -1 t0_40 >= 0
 -1 y0_32 + 1 y0_40 + 1 y0_44 + 1 t0_40 >= 0
 + 1 y0_32 -1 y0_40 + 1 y0_44 + 1 t0_40 >= 0
 -1 y0_32 -1 y0_40 + 1 y0_44 -1 t0_40 >= -2
 + 1 y0_32 -1 y0_40 -1 y0_44 -1 t0_40 >= -2
 -1 y0_32 + 1 y0_40 -1 y0_44 -1 t0_40 >= -2
 -1 y0_32 -1 y0_40 -1 y0_44 + 1 t0_40 >= -2
 + 1 y0_33 + 1 y0_37 -1 y0_45 + 1 t0_41 >= 0
 + 1 y0_33 + 1 y0_37 + 1 y0_45 -1 t0_41 >= 0
 -1 y0_33 + 1 y0_37 + 1 y0_45 + 1 t0_41 >= 0
 + 1 y0_33 -1 y0_37 + 1 y0_45 + 1 t0_41 >= 0
 -1 y0_33 -1 y0_37 + 1 y0_45 -1 t0_41 >= -2
 + 1 y0_33 -1 y0_37 -1 y0_45 -1 t0_41 >= -2
 -1 y0_33 + 1 y0_37 -1 y0_45 -1 t0_41 >= -2
 -1 y0_33 -1 y0_37 -1 y0_45 + 1 t0_41 >= -2
 + 1 y0_34 + 1 y0_38 -1 y0_42 + 1 t0_42 >= 0
 + 1 y0_34 + 1 y0_38 + 1 y0_42 -1 t0_42 >= 0
 -1 y0_34 + 1 y0_38 + 1 y0_42 + 1 t0_42 >= 0
 + 1 y0_34 -1 y0_38 + 1 y0_42 + 1 t0_42 >= 0
 -1 y0_34 -1 y0_38 + 1 y0_42 -1 t0_42 >= -2
 + 1 y0_34 -1 y0_38 -1 y0_42 -1 t0_42 >= -2
 -1 y0_34 + 1 y0_38 -1 y0_42 -1 t0_42 >= -2
 -1 y0_34 -1 y0_38 -1 y0_42 + 1 t0_42 >= -2
 + 1 y0_39 + 1 y0_43 -1 y0_47 + 1 t0_43 >= 0
 + 1 y0_39 + 1 y0_43 + 1 y0_47 -1 t0_43 >= 0
 -1 y0_39 + 1 y0_43 + 1 y0_47 + 1 t0_43 >= 0
 + 1 y0_39 -1 y0_43 + 1 y0_47 + 1 t0_43 >= 0
 -1 y0_39 -1 y0_43 + 1 y0_47 -1 t0_43 >= -2
 + 1 y0_39 -1 y0_43 -1 y0_47 -1 t0_43 >= -2
 -1 y0_39 + 1 y0_43 -1 y0_47 -1 t0_43 >= -2
 -1 y0_39 -1 y0_43 -1 y0_47 + 1 t0_43 >= -2
 + 1 y0_36 + 1 y0_40 -1 y0_44 + 1 t0_44 >= 0
 + 1 y0_36 + 1 y0_40 + 1 y0_44 -1 t0_44 >= 0
 -1 y0_36 + 1 y0_40 + 1 y0_44 + 1 t0_44 >= 0
 + 1 y0_36 -1 y0_40 + 1 y0_44 + 1 t0_44 >= 0
 -1 y0_36 -1 y0_40 + 1 y0_44 -1 t0_44 >= -2
 + 1 y0_36 -1 y0_40 -1 y0_44 -1 t0_44 >= -2
 -1 y0_36 + 1 y0_40 -1 y0_44 -1 t0_44 >= -2
 -1 y0_36 -1 y0_40 -1 y0_44 + 1 t0_44 >= -2
 + 1 y0_33 + 1 y0_41 -1 y0_45 + 1 t0_45 >= 0
 + 1 y0_33 + 1 y0_41 + 1 y0_45 -1 t0_45 >= 0
 -1 y0_33 + 1 y0_41 + 1 y0_45 + 1 t0_45 >= 0
 + 1 y0_33 -1 y0_41 + 1 y0_45 + 1 t0_45 >= 0
 -1 y0_33 -1 y0_41 + 1 y0_45 -1 t0_45 >= -2
 + 1 y0_33 -1 y0_41 -1 y0_45 -1 t0_45 >= -2
 -1 y0_33 + 1 y0_41 -1 y0_45 -1 t0_45 >= -2
 -1 y0_33 -1 y0_41 -1 y0_45 + 1 t0_45 >= -2
 + 1 y0_34 + 1 y0_38 -1 y0_46 + 1 t0_46 >= 0
 + 1 y0_34 + 1 y0_38 + 1 y0_46 -1 t0_46 >= 0
 -1 y0_34 + 1 y0_38 + 1 y0_46 + 1 t0_46 >= 0
 + 1 y0_34 -1 y0_38 + 1 y0_46 + 1 t0_46 >= 0
 -1 y0_34 -1 y0_38 + 1 y0_46 -1 t0_46 >= -2
 + 1 y0_34 -1 y0_38 -1 y0_46 -1 t0_46 >= -2
 -1 y0_34 + 1 y0_38 -1 y0_46 -1 t0_46 >= -2
 -1 y0_34 -1 y0_38 -1 y0_46 + 1 t0_46 >= -2
 + 1 y0_35 + 1 y0_39 -1 y0_43 + 1 t0_47 >= 0
 + 1 y0_35 + 1 y0_39 + 1 y0_43 -1 t0_47 >= 0
 -1 y0_35 + 1 y0_39 + 1 y0_43 + 1 t0_47 >= 0
 + 1 y0_35 -1 y0_39 + 1 y0_43 + 1 t0_47 >= 0
 -1 y0_35 -1 y0_39 + 1 y0_43 -1 t0_47 >= -2
 + 1 y0_35 -1 y0_39 -1 y0_43 -1 t0_47 >= -2
 -1 y0_35 + 1 y0_39 -1 y0_43 -1 t0_47 >= -2
 -1 y0_35 -1 y0_39 -1 y0_43 + 1 t0_47 >= -2
 + 1 y0_52 + 1 y0_56 -1 y0_60 + 1 t0_48 >= 0
 + 1 y0_52 + 1 y0_56 + 1 y0_60 -1 t0_48 >= 0
 -1 y0_52 + 1 y0_56 + 1 y0_60 + 1 t0_48 >= 0
 + 1 y0_52 -1 y0_56 + 1 y0_60 + 1 t0_48 >= 0
 -1 y0_52 -1 y0_56 + 1 y0_60 -1 t0_48 >= -2
 + 1 y0_52 -1 y0_56 -1 y0_60 -1 t0_48 >= -2
 -1 y0_52 + 1 y0_56 -1 y0_60 -1 t0_48 >= -2
 -1 y0_52 -1 y0_56 -1 y0_60 + 1 t0_48 >= -2
 + 1 y0_49 + 1 y0_57 -1 y0_61 + 1 t0_49 >= 0
 + 1 y0_49 + 1 y0_57 + 1 y0_61 -1 t0_49 >= 0
 -1 y0_49 + 1 y0_57 + 1 y0_61 + 1 t0_49 >= 0
 + 1 y0_49 -1 y0_57 + 1 y0_61 + 1 t0_49 >= 0
 -1 y0_49 -1 y0_57 + 1 y0_61 -1 t0_49 >= -2
 + 1 y0_49 -1 y0_57 -1 y0_61 -1 t0_49 >= -2
 -1 y0_49 + 1 y0_57 -1 y0_61 -1 t0_49 >= -2
 -1 y0_49 -1 y0_57 -1 y0_61 + 1 t0_49 >= -2
 + 1 y0_50 + 1 y0_54 -1 y0_62 + 1 t0_50 >= 0
 + 1 y0_50 + 1 y0_54 + 1 y0_62 -1 t0_50 >= 0
 -1 y0_50 + 1 y0_54 + 1 y0_62 + 1 t0_50 >= 0
 + 1 y0_50 -1 y0_54 + 1 y0_62 + 1 t0_50 >= 0
 -1 y0_50 -1 y0_54 + 1 y0_62 -1 t0_50 >= -2
 + 1 y0_50 -1 y0_54 -1 y0_62 -1 t0_50 >= -2
 -1 y0_50 + 1 y0_54 -1 y0_62 -1 t0_50 >= -2
 -1 y0_50 -1 y0_54 -1 y0_62 + 1 t0_50 >= -2
 + 1 y0_51 + 1 y0_55 -1 y0_59 + 1 t0_51 >= 0
 + 1 y0_51 + 1 y0_55 + 1 y0_59 -1 t0_51 >= 0
 -1 y0_51 + 1 y0_55 + 1 y0_59 + 1 t0_51 >= 0
 + 1 y0_51 -1 y0_55 + 1 y0_59 + 1 t0_51 >= 0
 -1 y0_51 -1 y0_55 + 1 y0_59 -1 t0_51 >= -2
 + 1 y0_51 -1 y0_55 -1 y0_59 -1 t0_51 >= -2
 -1 y0_51 + 1 y0_55 -1 y0_59 -1 t0_51 >= -2
 -1 y0_51 -1 y0_55 -1 y0_59 + 1 t0_51 >= -2
 + 1 y0_48 + 1 y0_52 -1 y0_56 + 1 t0_52 >= 0
 + 1 y0_48 + 1 y0_52 + 1 y0_56 -1 t0_52 >= 0
 -1 y0_48 + 1 y0_52 + 1 y0_56 + 1 t0_52 >= 0
 + 1 y0_48 -1 y0_52 + 1 y0_56 + 1 t0_52 >= 0
 -1 y0_48 -1 y0_52 + 1 y0_56 -1 t0_52 >= -2
 + 1 y0_48 -1 y0_52 -1 y0_56 -1 t0_52 >= -2
 -1 y0_48 + 1 y0_52 -1 y0_56 -1 t0_52 >= -2
 -1 y0_48 -1 y0_52 -1 y0_56 + 1 t0_52 >= -2
 + 1 y0_53 + 1 y0_57 -1 y0_61 + 1 t0_53 >= 0
 + 1 y0_53 + 1 y0_57 + 1 y0_61 -1 t0_53 >= 0
 -1 y0_53 + 1 y0_57 + 1 y0_61 + 1 t0_53 >= 0
 + 1 y0_53 -1 y0_57 + 1 y0_61 + 1 t0_53 >= 0
 -1 y0_53 -1 y0_57 + 1 y0_61 -1 t0_53 >= -2
 + 1 y0_53 -1 y0_57 -1 y0_61 -1 t0_53 >= -2
 -1 y0_53 + 1 y0_57 -1 y0_61 -1 t0_53 >= -2
 -1 y0_53 -1 y0_57 -1 y0_61 + 1 t0_53 >= -2
 + 1 y0_50 + 1 y0_58 -1 y0_62 + 1 t0_54 >= 0
 + 1 y0_50 + 1 y0_58 + 1 y0_62 -1 t0_54 >= 0
 -1 y0_50 + 1 y0_58 + 1 y0_62 + 1 t0_54 >= 0
 + 1 y0_50 -1 y0_58 + 1 y0_62 + 1 t0_54 >= 0
 -1 y0_50 -1 y0_58 + 1 y0_62 -1 t0_54 >= -2
 + 1 y0_50 -1 y0_58 -1 y0_62 -1 t0_54 >= -2
 -1 y0_50 + 1 y0_58 -1 y0_62 -1 t0_54 >= -2
 -1 y0_50 -1 y0_58 -1 y0_62 + 1 t0_54 >= -2
 + 1 y0_51 + 1 y0_55 -1 y0_63 + 1 t0_55 >= 0
 + 1 y0_51 + 1 y0_55 + 1 y0_63 -1 t0_55 >= 0
 -1 y0_51 + 1 y0_55 + 1 y0_63 + 1 t0_55 >= 0
 + 1 y0_51 -1 y0_55 + 1 y0_63 + 1 t0_55 >= 0
 -1 y0_51 -1 y0_55 + 1 y0_63 -1 t0_55 >= -2
 + 1 y0_51 -1 y0_55 -1 y0_63 -1 t0_55 >= -2
 -1 y0_51 + 1 y0_55 -1 y0_63 -1 t0_55 >= -2
 -1 y0_51 -1 y0_55 -1 y0_63 + 1 t0_55 >= -2
 + 1 y0_48 + 1 y0_52 -1 y0_60 + 1 t0_56 >= 0
 + 1 y0_48 + 1 y0_52 + 1 y0_60 -1 t0_56 >= 0
 -1 y0_48 + 1 y0_52 + 1 y0_60 + 1 t0_56 >= 0
 + 1 y0_48 -1 y0_52 + 1 y0_60 + 1 t0_56 >= 0
 -1 y0_48 -1 y0_52 + 1 y0_60 -1 t0_56 >= -2
 + 1 y0_48 -1 y0_52 -1 y0_60 -1 t0_56 >= -2
 -1 y0_48 + 1 y0_52 -1 y0_60 -1 t0_56 >= -2
 -1 y0_48 -1 y0_52 -1 y0_60 + 1 t0_56 >= -2
 + 1 y0_49 + 1 y0_53 -1 y0_57 + 1 t0_57 >= 0
 + 1 y0_49 + 1 y0_53 + 1 y0_57 -1 t0_57 >= 0
 -1 y0_49 + 1 y0_53 + 1 y0_57 + 1 t0_57 >= 0
 + 1 y0_49 -1 y0_53 + 1 y0_57 + 1 t0_57 >= 0
 -1 y0_49 -1 y0_53 + 1 y0_57 -1 t0_57 >= -2
 + 1 y0_49 -1 y0_53 -1 y0_57 -1 t0_57 >= -2
 -1 y0_49 + 1 y0_53 -1 y0_57 -1 t0_57 >= -2
 -1 y0_49 -1 y0_53 -1 y0_57 + 1 t0_57 >= -2
 + 1 y0_54 + 1 y0_58 -1 y0_62 + 1 t0_58 >= 0
 + 1 y0_54 + 1 y0_58 + 1 y0_62 -1 t0_58 >= 0
 -1 y0_54 + 1 y0_58 + 1 y0_62 + 1 t0_58 >= 0
 + 1 y0_54 -1 y0_58 + 1 y0_62 + 1 t0_58 >= 0
 -1 y0_54 -1 y0_58 + 1 y0_62 -1 t0_58 >= -2
 + 1 y0_54 -1 y0_58 -1 y0_62 -1 t0_58 >= -2
 -1 y0_54 + 1 y0_58 -1 y0_62 -1 t0_58 >= -2
 -1 y0_54 -1 y0_58 -1 y0_62 + 1 t0_58 >= -2
 + 1 y0_51 + 1 y0_59 -1 y0_63 + 1 t0_59 >= 0
 + 1 y0_51 + 1 y0_59 + 1 y0_63 -1 t0_59 >= 0
 -1 y0_51 + 1 y0_59 + 1 y0_63 + 1 t0_59 >= 0
 + 1 y0_51 -1 y0_59 + 1 y0_63 + 1 t0_59 >= 0
 -1 y0_51 -1 y0_59 + 1 y0_63 -1 t0_59 >= -2
 + 1 y0_51 -1 y0_59 -1 y0_63 -1 t0_59 >= -2
 -1 y0_51 + 1 y0_59 -1 y0_63 -1 t0_59 >= -2
 -1 y0_51 -1 y0_59 -1 y0_63 + 1 t0_59 >= -2
 + 1 y0_48 + 1 y0_56 -1 y0_60 + 1 t0_60 >= 0
 + 1 y0_48 + 1 y0_56 + 1 y0_60 -1 t0_60 >= 0
 -1 y0_48 + 1 y0_56 + 1 y0_60 + 1 t0_60 >= 0
 + 1 y0_48 -1 y0_56 + 1 y0_60 + 1 t0_60 >= 0
 -1 y0_48 -1 y0_56 + 1 y0_60 -1 t0_60 >= -2
 + 1 y0_48 -1 y0_56 -1 y0_60 -1 t0_60 >= -2
 -1 y0_48 + 1 y0_56 -1 y0_60 -1 t0_60 >= -2
 -1 y0_48 -1 y0_56 -1 y0_60 + 1 t0_60 >= -2
 + 1 y0_49 + 1 y0_53 -1 y0_61 + 1 t0_61 >= 0
 + 1 y0_49 + 1 y0_53 + 1 y0_61 -1 t0_61 >= 0
 -1 y0_49 + 1 y0_53 + 1 y0_61 + 1 t0_61 >= 0
 + 1 y0_49 -1 y0_53 + 1 y0_61 + 1 t0_61 >= 0
 -1 y0_49 -1 y0_53 + 1 y0_61 -1 t0_61 >= -2
 + 1 y0_49 -1 y0_53 -1 y0_61 -1 t0_61 >= -2
 -1 y0_49 + 1 y0_53 -1 y0_61 -1 t0_61 >= -2
 -1 y0_49 -1 y0_53 -1 y0_61 + 1 t0_61 >= -2
 + 1 y0_50 + 1 y0_54 -1 y0_58 + 1 t0_62 >= 0
 + 1 y0_50 + 1 y0_54 + 1 y0_58 -1 t0_62 >= 0
 -1 y0_50 + 1 y0_54 + 1 y0_58 + 1 t0_62 >= 0
 + 1 y0_50 -1 y0_54 + 1 y0_58 + 1 t0_62 >= 0
 -1 y0_50 -1 y0_54 + 1 y0_58 -1 t0_62 >= -2
 + 1 y0_50 -1 y0_54 -1 y0_58 -1 t0_62 >= -2
 -1 y0_50 + 1 y0_54 -1 y0_58 -1 t0_62 >= -2
 -1 y0_50 -1 y0_54 -1 y0_58 + 1 t0_62 >= -2
 + 1 y0_55 + 1 y0_59 -1 y0_63 + 1 t0_63 >= 0
 + 1 y0_55 + 1 y0_59 + 1 y0_63 -1 t0_63 >= 0
 -1 y0_55 + 1 y0_59 + 1 y0_63 + 1 t0_63 >= 0
 + 1 y0_55 -1 y0_59 + 1 y0_63 + 1 t0_63 >= 0
 -1 y0_55 -1 y0_59 + 1 y0_63 -1 t0_63 >= -2
 + 1 y0_55 -1 y0_59 -1 y0_63 -1 t0_63 >= -2
 -1 y0_55 + 1 y0_59 -1 y0_63 -1 t0_63 >= -2
 -1 y0_55 -1 y0_59 -1 y0_63 + 1 t0_63 >= -2
x1_0 - t0_0 = 0
x1_1 - t0_1 = 0
x1_2 - t0_2 = 0
x1_3 - t0_3 = 0
x1_4 - t0_20 = 0
x1_5 - t0_21 = 0
x1_6 - t0_22 = 0
x1_7 - t0_23 = 0
x1_8 - t0_40 = 0
x1_9 - t0_41 = 0
x1_10 - t0_42 = 0
x1_11 - t0_43 = 0
x1_12 - t0_60 = 0
x1_13 - t0_61 = 0
x1_14 - t0_62 = 0
x1_15 - t0_63 = 0
x1_16 - t0_16 = 0
x1_17 - t0_17 = 0
x1_18 - t0_18 = 0
x1_19 - t0_19 = 0
x1_20 - t0_36 = 0
x1_21 - t0_37 = 0
x1_22 - t0_38 = 0
x1_23 - t0_39 = 0
x1_24 - t0_56 = 0
x1_25 - t0_57 = 0
x1_26 - t0_58 = 0
x1_27 - t0_59 = 0
x1_28 - t0_12 = 0
x1_29 - t0_13 = 0
x1_30 - t0_14 = 0
x1_31 - t0_15 = 0
x1_32 - t0_32 = 0
x1_33 - t0_33 = 0
x1_34 - t0_34 = 0
x1_35 - t0_35 = 0
x1_36 - t0_52 = 0
x1_37 - t0_53 = 0
x1_38 - t0_54 = 0
x1_39 - t0_55 = 0
x1_40 - t0_8 = 0
x1_41 - t0_9 = 0
x1_42 - t0_10 = 0
x1_43 - t0_11 = 0
x1_44 - t0_28 = 0
x1_45 - t0_29 = 0
x1_46 - t0_30 = 0
x1_47 - t0_31 = 0
x1_48 - t0_48 = 0
x1_49 - t0_49 = 0
x1_50 - t0_50 = 0
x1_51 - t0_51 = 0
x1_52 - t0_4 = 0
x1_53 - t0_5 = 0
x1_54 - t0_6 = 0
x1_55 - t0_7 = 0
x1_56 - t0_24 = 0
x1_57 - t0_25 = 0
x1_58 - t0_26 = 0
x1_59 - t0_27 = 0
x1_60 - t0_44 = 0
x1_61 - t0_45 = 0
x1_62 - t0_46 = 0
x1_63 - t0_47 = 0
x1_0 + x1_1 + x1_2 + x1_3 - A1_0 >= 0
A1_0 - x1_0 >= 0
A1_0 - x1_1 >= 0
A1_0 - x1_2 >= 0
A1_0 - x1_3 >= 0
x1_4 + x1_5 + x1_6 + x1_7 - A1_1 >= 0
A1_1 - x1_4 >= 0
A1_1 - x1_5 >= 0
A1_1 - x1_6 >= 0
A1_1 - x1_7 >= 0
x1_8 + x1_9 + x1_10 + x1_11 - A1_2 >= 0
A1_2 - x1_8 >= 0
A1_2 - x1_9 >= 0
A1_2 - x1_10 >= 0
A1_2 - x1_11 >= 0
x1_12 + x1_13 + x1_14 + x1_15 - A1_3 >= 0
A1_3 - x1_12 >= 0
A1_3 - x1_13 >= 0
A1_3 - x1_14 >= 0
A1_3 - x1_15 >= 0
x1_16 + x1_17 + x1_18 + x1_19 - A1_4 >= 0
A1_4 - x1_16 >= 0
A1_4 - x1_17 >= 0
A1_4 - x1_18 >= 0
A1_4 - x1_19 >= 0
x1_20 + x1_21 + x1_22 + x1_23 - A1_5 >= 0
A1_5 - x1_20 >= 0
A1_5 - x1_21 >= 0
A1_5 - x1_22 >= 0
A1_5 - x1_23 >= 0
x1_24 + x1_25 + x1_26 + x1_27 - A1_6 >= 0
A1_6 - x1_24 >= 0
A1_6 - x1_25 >= 0
A1_6 - x1_26 >= 0
A1_6 - x1_27 >= 0
x1_28 + x1_29 + x1_30 + x1_31 - A1_7 >= 0
A1_7 - x1_28 >= 0
A1_7 - x1_29 >= 0
A1_7 - x1_30 >= 0
A1_7 - x1_31 >= 0
x1_32 + x1_33 + x1_34 + x1_35 - A1_8 >= 0
A1_8 - x1_32 >= 0
A1_8 - x1_33 >= 0
A1_8 - x1_34 >= 0
A1_8 - x1_35 >= 0
x1_36 + x1_37 + x1_38 + x1_39 - A1_9 >= 0
A1_9 - x1_36 >= 0
A1_9 - x1_37 >= 0
A1_9 - x1_38 >= 0
A1_9 - x1_39 >= 0
x1_40 + x1_41 + x1_42 + x1_43 - A1_10 >= 0
A1_10 - x1_40 >= 0
A1_10 - x1_41 >= 0
A1_10 - x1_42 >= 0
A1_10 - x1_43 >= 0
x1_44 + x1_45 + x1_46 + x1_47 - A1_11 >= 0
A1_11 - x1_44 >= 0
A1_11 - x1_45 >= 0
A1_11 - x1_46 >= 0
A1_11 - x1_47 >= 0
x1_48 + x1_49 + x1_50 + x1_51 - A1_12 >= 0
A1_12 - x1_48 >= 0
A1_12 - x1_49 >= 0
A1_12 - x1_50 >= 0
A1_12 - x1_51 >= 0
x1_52 + x1_53 + x1_54 + x1_55 - A1_13 >= 0
A1_13 - x1_52 >= 0
A1_13 - x1_53 >= 0
A1_13 - x1_54 >= 0
A1_13 - x1_55 >= 0
x1_56 + x1_57 + x1_58 + x1_59 - A1_14 >= 0
A1_14 - x1_56 >= 0
A1_14 - x1_57 >= 0
A1_14 - x1_58 >= 0
A1_14 - x1_59 >= 0
x1_60 + x1_61 + x1_62 + x1_63 - A1_15 >= 0
A1_15 - x1_60 >= 0
A1_15 - x1_61 >= 0
A1_15 - x1_62 >= 0
A1_15 - x1_63 >= 0
A0_0 + A0_1 + A0_2 + A0_3 + A0_4 + A0_5 + A0_6 + A0_7 + A0_8 + A0_9 + A0_10 + A0_11 + A0_12 + A0_13 + A0_14 + A0_15 <= 4
A1_0 + A1_1 + A1_2 + A1_3 + A1_4 + A1_5 + A1_6 + A1_7 + A1_8 + A1_9 + A1_10 + A1_11 + A1_12 + A1_13 + A1_14 + A1_15 <= 4
Binary
A0_0
A0_1
A0_2
A0_3
A0_4
A0_5
A0_6
A0_7
A0_8
A0_9
A0_10
A0_11
A0_12
A0_13
A0_14
A0_15
A1_0
A1_1
A1_2
A1_3
A1_4
A1_5
A1_6
A1_7
A1_8
A1_9
A1_10
A1_11
A1_12
A1_13
A1_14
A1_15
x0_0
x0_1
x0_2
x0_3
x0_4
x0_5
x0_6
x0_7
x0_8
x0_9
x0_10
x0_11
x0_12
x0_13
x0_14
x0_15
x0_16
x0_17
x0_18
x0_19
x0_20
x0_21
x0_22
x0_23
x0_24
x0_25
x0_26
x0_27
x0_28
x0_29
x0_30
x0_31
x0_32
x0_33
x0_34
x0_35
x0_36
x0_37
x0_38
x0_39
x0_40
x0_41
x0_42
x0_43
x0_44
x0_45
x0_46
x0_47
x0_48
x0_49
x0_50
x0_51
x0_52
x0_53
x0_54
x0_55
x0_56
x0_57
x0_58
x0_59
x0_60
x0_61
x0_62
x0_63
x1_0
x1_1
x1_2
x1_3
x1_4
x1_5
x1_6
x1_7
x1_8
x1_9
x1_10
x1_11
x1_12
x1_13
x1_14
x1_15
x1_16
x1_17
x1_18
x1_19
x1_20
x1_21
x1_22
x1_23
x1_24
x1_25
x1_26
x1_27
x1_28
x1_29
x1_30
x1_31
x1_32
x1_33
x1_34
x1_35
x1_36
x1_37
x1_38
x1_39
x1_40
x1_41
x1_42
x1_43
x1_44
x1_45
x1_46
x1_47
x1_48
x1_49
x1_50
x1_51
x1_52
x1_53
x1_54
x1_55
x1_56
x1_57
x1_58
x1_59
x1_60
x1_61
x1_62
x1_63
y0_0
y0_1
y0_2
y0_3
y0_4
y0_5
y0_6
y0_7
y0_8
y0_9
y0_10
y0_11
y0_12
y0_13
y0_14
y0_15
y0_16
y0_17
y0_18
y0_19
y0_20
y0_21
y0_22
y0_23
y0_24
y0_25
y0_26
y0_27
y0_28
y0_29
y0_30
y0_31
y0_32
y0_33
y0_34
y0_35
y0_36
y0_37
y0_38
y0_39
y0_40
y0_41
y0_42
y0_43
y0_44
y0_45
y0_46
y0_47
y0_48
y0_49
y0_50
y0_51
y0_52
y0_53
y0_54
y0_55
y0_56
y0_57
y0_58
y0_59
y0_60
y0_61
y0_62
y0_63
y1_0
y1_1
y1_2
y1_3
y1_4
y1_5
y1_6
y1_7
y1_8
y1_9
y1_10
y1_11
y1_12
y1_13
y1_14
y1_15
y1_16
y1_17
y1_18
y1_19
y1_20
y1_21
y1_22
y1_23
y1_24
y1_25
y1_26
y1_27
y1_28
y1_29
y1_30
y1_31
y1_32
y1_33
y1_34
y1_35
y1_36
y1_37
y1_38
y1_39
y1_40
y1_41
y1_42
y1_43
y1_44
y1_45
y1_46
y1_47
y1_48
y1_49
y1_50
y1_51
y1_52
y1_53
y1_54
y1_55
y1_56
y1_57
y1_58
y1_59
y1_60
y1_61
y1_62
y1_63
t0_0
t0_1
t0_2
t0_3
t0_4
t0_5
t0_6
t0_7
t0_8
t0_9
t0_10
t0_11
t0_12
t0_13
t0_14
t0_15
t0_16
t0_17
t0_18
t0_19
t0_20
t0_21
t0_22
t0_23
t0_24
t0_25
t0_26
t0_27
t0_28
t0_29
t0_30
t0_31
t0_32
t0_33
t0_34
t0_35
t0_36
t0_37
t0_38
t0_39
t0_40
t0_41
t0_42
t0_43
t0_44
t0_45
t0_46
t0_47
t0_48
t0_49
t0_50
t0_51
t0_52
t0_53
t0_54
t0_55
t0_56
t0_57
t0_58
t0_59
t0_60
t0_61
t0_62
t0_63
p0_0_0
p0_0_1
p0_0_2
p0_0_3
p0_0_4
p0_0_5
p0_0_6
p0_0_7
p0_0_8
p0_0_9
p0_0_10
p0_0_11
p0_0_12
p0_0_13
p0_0_14
p0_0_15
p0_1_0
p0_1_1
p0_1_2
p0_1_3
p0_1_4
p0_1_5
p0_1_6
p0_1_7
p0_1_8
p0_1_9
p0_1_10
p0_1_11
p0_1_12
p0_1_13
p0_1_14
p0_1_15
p1_0_0
p1_0_1
p1_0_2
p1_0_3
p1_0_4
p1_0_5
p1_0_6
p1_0_7
p1_0_8
p1_0_9
p1_0_10
p1_0_11
p1_0_12
p1_0_13
p1_0_14
p1_0_15
p1_1_0
p1_1_1
p1_1_2
p1_1_3
p1_1_4
p1_1_5
p1_1_6
p1_1_7
p1_1_8
p1_1_9
p1_1_10
p1_1_11
p1_1_12
p1_1_13
p1_1_14
p1_1_15
End
