Minimize
2 p0_0_0 + 4 p1_0_0 + 2 p0_0_1 + 4 p1_0_1 + 2 p0_0_2 + 4 p1_0_2 + 2 p0_0_3 + 4 p1_0_3 + 2 p0_0_4 + 4 p1_0_4 + 2 p0_0_5 + 4 p1_0_5 + 2 p0_0_6 + 4 p1_0_6 + 2 p0_0_7 + 4 p1_0_7 + 2 p0_0_8 + 4 p1_0_8 + 2 p0_0_9 + 4 p1_0_9 + 2 p0_0_10 + 4 p1_0_10 + 2 p0_0_11 + 4 p1_0_11 + 2 p0_0_12 + 4 p1_0_12 + 2 p0_0_13 + 4 p1_0_13 + 2 p0_0_14 + 4 p1_0_14 + 2 p0_0_15 + 4 p1_0_15 + 2 p0_1_0 + 4 p1_1_0 + 2 p0_1_1 + 4 p1_1_1 + 2 p0_1_2 + 4 p1_1_2 + 2 p0_1_3 + 4 p1_1_3 + 2 p0_1_4 + 4 p1_1_4 + 2 p0_1_5 + 4 p1_1_5 + 2 p0_1_6 + 4 p1_1_6 + 2 p0_1_7 + 4 p1_1_7 + 2 p0_1_8 + 4 p1_1_8 + 2 p0_1_9 + 4 p1_1_9 + 2 p0_1_10 + 4 p1_1_10 + 2 p0_1_11 + 4 p1_1_11 + 2 p0_1_12 + 4 p1_1_12 + 2 p0_1_13 + 4 p1_1_13 + 2 p0_1_14 + 4 p1_1_14 + 2 p0_1_15 + 4 p1_1_15 + 2 p0_2_0 + 4 p1_2_0 + 2 p0_2_1 + 4 p1_2_1 + 2 p0_2_2 + 4 p1_2_2 + 2 p0_2_3 + 4 p1_2_3 + 2 p0_2_4 + 4 p1_2_4 + 2 p0_2_5 + 4 p1_2_5 + 2 p0_2_6 + 4 p1_2_6 + 2 p0_2_7 + 4 p1_2_7 + 2 p0_2_8 + 4 p1_2_8 + 2 p0_2_9 + 4 p1_2_9 + 2 p0_2_10 + 4 p1_2_10 + 2 p0_2_11 + 4 p1_2_11 + 2 p0_2_12 + 4 p1_2_12 + 2 p0_2_13 + 4 p1_2_13 + 2 p0_2_14 + 4 p1_2_14 + 2 p0_2_15 + 4 p1_2_15 + 2 p0_3_0 + 4 p1_3_0 + 2 p0_3_1 + 4 p1_3_1 + 2 p0_3_2 + 4 p1_3_2 + 2 p0_3_3 + 4 p1_3_3 + 2 p0_3_4 + 4 p1_3_4 + 2 p0_3_5 + 4 p1_3_5 + 2 p0_3_6 + 4 p1_3_6 + 2 p0_3_7 + 4 p1_3_7 + 2 p0_3_8 + 4 p1_3_8 + 2 p0_3_9 + 4 p1_3_9 + 2 p0_3_10 + 4 p1_3_10 + 2 p0_3_11 + 4 p1_3_11 + 2 p0_3_12 + 4 p1_3_12 + 2 p0_3_13 + 4 p1_3_13 + 2 p0_3_14 + 4 p1_3_14 + 2 p0_3_15 + 4 p1_3_15
Subject to
x0_0 + x0_1 + x0_2 + x0_3 + x0_4 + x0_5 + x0_6 + x0_7 + x0_8 + x0_9 + x0_10 + x0_11 + x0_12 + x0_13 + x0_14 + x0_15 + x0_16 + x0_17 + x0_18 + x0_19 + x0_20 + x0_21 + x0_22 + x0_23 + x0_24 + x0_25 + x0_26 + x0_27 + x0_28 + x0_29 + x0_30 + x0_31 + x0_32 + x0_33 + x0_34 + x0_35 + x0_36 + x0_37 + x0_38 + x0_39 + x0_40 + x0_41 + x0_42 + x0_43 + x0_44 + x0_45 + x0_46 + x0_47 + x0_48 + x0_49 + x0_50 + x0_51 + x0_52 + x0_53 + x0_54 + x0_55 + x0_56 + x0_57 + x0_58 + x0_59 + x0_60 + x0_61 + x0_62 + x0_63 >= 1 
x0_0 + x0_1 + x0_2 + x0_3 - A0_0 >= 0 
A0_0 - x0_0 >= 0 
A0_0 - x0_1 >= 0 
A0_0 - x0_2 >= 0 
A0_0 - x0_3 >= 0 
x0_4 + x0_5 + x0_6 + x0_7 - A0_1 >= 0 
A0_1 - x0_4 >= 0 
A0_1 - x0_5 >= 0 
A0_1 - x0_6 >= 0 
A0_1 - x0_7 >= 0 
x0_8 + x0_9 + x0_10 + x0_11 - A0_2 >= 0 
A0_2 - x0_8 >= 0 
A0_2 - x0_9 >= 0 
A0_2 - x0_10 >= 0 
A0_2 - x0_11 >= 0 
x0_12 + x0_13 + x0_14 + x0_15 - A0_3 >= 0 
A0_3 - x0_12 >= 0 
A0_3 - x0_13 >= 0 
A0_3 - x0_14 >= 0 
A0_3 - x0_15 >= 0 
x0_16 + x0_17 + x0_18 + x0_19 - A0_4 >= 0 
A0_4 - x0_16 >= 0 
A0_4 - x0_17 >= 0 
A0_4 - x0_18 >= 0 
A0_4 - x0_19 >= 0 
x0_20 + x0_21 + x0_22 + x0_23 - A0_5 >= 0 
A0_5 - x0_20 >= 0 
A0_5 - x0_21 >= 0 
A0_5 - x0_22 >= 0 
A0_5 - x0_23 >= 0 
x0_24 + x0_25 + x0_26 + x0_27 - A0_6 >= 0 
A0_6 - x0_24 >= 0 
A0_6 - x0_25 >= 0 
A0_6 - x0_26 >= 0 
A0_6 - x0_27 >= 0 
x0_28 + x0_29 + x0_30 + x0_31 - A0_7 >= 0 
A0_7 - x0_28 >= 0 
A0_7 - x0_29 >= 0 
A0_7 - x0_30 >= 0 
A0_7 - x0_31 >= 0 
x0_32 + x0_33 + x0_34 + x0_35 - A0_8 >= 0 
A0_8 - x0_32 >= 0 
A0_8 - x0_33 >= 0 
A0_8 - x0_34 >= 0 
A0_8 - x0_35 >= 0 
x0_36 + x0_37 + x0_38 + x0_39 - A0_9 >= 0 
A0_9 - x0_36 >= 0 
A0_9 - x0_37 >= 0 
A0_9 - x0_38 >= 0 
A0_9 - x0_39 >= 0 
x0_40 + x0_41 + x0_42 + x0_43 - A0_10 >= 0 
A0_10 - x0_40 >= 0 
A0_10 - x0_41 >= 0 
A0_10 - x0_42 >= 0 
A0_10 - x0_43 >= 0 
x0_44 + x0_45 + x0_46 + x0_47 - A0_11 >= 0 
A0_11 - x0_44 >= 0 
A0_11 - x0_45 >= 0 
A0_11 - x0_46 >= 0 
A0_11 - x0_47 >= 0 
x0_48 + x0_49 + x0_50 + x0_51 - A0_12 >= 0 
A0_12 - x0_48 >= 0 
A0_12 - x0_49 >= 0 
A0_12 - x0_50 >= 0 
A0_12 - x0_51 >= 0 
x0_52 + x0_53 + x0_54 + x0_55 - A0_13 >= 0 
A0_13 - x0_52 >= 0 
A0_13 - x0_53 >= 0 
A0_13 - x0_54 >= 0 
A0_13 - x0_55 >= 0 
x0_56 + x0_57 + x0_58 + x0_59 - A0_14 >= 0 
A0_14 - x0_56 >= 0 
A0_14 - x0_57 >= 0 
A0_14 - x0_58 >= 0 
A0_14 - x0_59 >= 0 
x0_60 + x0_61 + x0_62 + x0_63 - A0_15 >= 0 
A0_15 - x0_60 >= 0 
A0_15 - x0_61 >= 0 
A0_15 - x0_62 >= 0 
A0_15 - x0_63 >= 0 
 + y0_4 + y0_8 + y0_12 + t0_0 -4 d0_0 + 2 d0_1 = 0 
 + y0_1 + y0_9 + y0_13 + t0_1 -4 d0_2 + 2 d0_3 = 0 
 + y0_2 + y0_6 + y0_14 + t0_2 -4 d0_4 + 2 d0_5 = 0 
 + y0_3 + y0_7 + y0_11 + t0_3 -4 d0_6 + 2 d0_7 = 0 
 + y0_0 + y0_4 + y0_8 + t0_4 -4 d0_8 + 2 d0_9 = 0 
 + y0_5 + y0_9 + y0_13 + t0_5 -4 d0_10 + 2 d0_11 = 0 
 + y0_2 + y0_10 + y0_14 + t0_6 -4 d0_12 + 2 d0_13 = 0 
 + y0_3 + y0_7 + y0_15 + t0_7 -4 d0_14 + 2 d0_15 = 0 
 + y0_0 + y0_4 + y0_12 + t0_8 -4 d0_16 + 2 d0_17 = 0 
 + y0_1 + y0_5 + y0_9 + t0_9 -4 d0_18 + 2 d0_19 = 0 
 + y0_6 + y0_10 + y0_14 + t0_10 -4 d0_20 + 2 d0_21 = 0 
 + y0_3 + y0_11 + y0_15 + t0_11 -4 d0_22 + 2 d0_23 = 0 
 + y0_0 + y0_8 + y0_12 + t0_12 -4 d0_24 + 2 d0_25 = 0 
 + y0_1 + y0_5 + y0_13 + t0_13 -4 d0_26 + 2 d0_27 = 0 
 + y0_2 + y0_6 + y0_10 + t0_14 -4 d0_28 + 2 d0_29 = 0 
 + y0_7 + y0_11 + y0_15 + t0_15 -4 d0_30 + 2 d0_31 = 0 
 + y0_16 + y0_20 + y0_24 + t0_16 -4 d0_32 + 2 d0_33 = 0 
 + y0_21 + y0_25 + y0_29 + t0_17 -4 d0_34 + 2 d0_35 = 0 
 + y0_18 + y0_26 + y0_30 + t0_18 -4 d0_36 + 2 d0_37 = 0 
 + y0_19 + y0_23 + y0_31 + t0_19 -4 d0_38 + 2 d0_39 = 0 
 + y0_16 + y0_20 + y0_28 + t0_20 -4 d0_40 + 2 d0_41 = 0 
 + y0_17 + y0_21 + y0_25 + t0_21 -4 d0_42 + 2 d0_43 = 0 
 + y0_22 + y0_26 + y0_30 + t0_22 -4 d0_44 + 2 d0_45 = 0 
 + y0_19 + y0_27 + y0_31 + t0_23 -4 d0_46 + 2 d0_47 = 0 
 + y0_16 + y0_24 + y0_28 + t0_24 -4 d0_48 + 2 d0_49 = 0 
 + y0_17 + y0_21 + y0_29 + t0_25 -4 d0_50 + 2 d0_51 = 0 
 + y0_18 + y0_22 + y0_26 + t0_26 -4 d0_52 + 2 d0_53 = 0 
 + y0_23 + y0_27 + y0_31 + t0_27 -4 d0_54 + 2 d0_55 = 0 
 + y0_20 + y0_24 + y0_28 + t0_28 -4 d0_56 + 2 d0_57 = 0 
 + y0_17 + y0_25 + y0_29 + t0_29 -4 d0_58 + 2 d0_59 = 0 
 + y0_18 + y0_22 + y0_30 + t0_30 -4 d0_60 + 2 d0_61 = 0 
 + y0_19 + y0_23 + y0_27 + t0_31 -4 d0_62 + 2 d0_63 = 0 
 + y0_32 + y0_36 + y0_40 + t0_32 -4 d0_64 + 2 d0_65 = 0 
 + y0_37 + y0_41 + y0_45 + t0_33 -4 d0_66 + 2 d0_67 = 0 
 + y0_34 + y0_42 + y0_46 + t0_34 -4 d0_68 + 2 d0_69 = 0 
 + y0_35 + y0_39 + y0_47 + t0_35 -4 d0_70 + 2 d0_71 = 0 
 + y0_32 + y0_36 + y0_44 + t0_36 -4 d0_72 + 2 d0_73 = 0 
 + y0_33 + y0_37 + y0_41 + t0_37 -4 d0_74 + 2 d0_75 = 0 
 + y0_38 + y0_42 + y0_46 + t0_38 -4 d0_76 + 2 d0_77 = 0 
 + y0_35 + y0_43 + y0_47 + t0_39 -4 d0_78 + 2 d0_79 = 0 
 + y0_32 + y0_40 + y0_44 + t0_40 -4 d0_80 + 2 d0_81 = 0 
 + y0_33 + y0_37 + y0_45 + t0_41 -4 d0_82 + 2 d0_83 = 0 
 + y0_34 + y0_38 + y0_42 + t0_42 -4 d0_84 + 2 d0_85 = 0 
 + y0_39 + y0_43 + y0_47 + t0_43 -4 d0_86 + 2 d0_87 = 0 
 + y0_36 + y0_40 + y0_44 + t0_44 -4 d0_88 + 2 d0_89 = 0 
 + y0_33 + y0_41 + y0_45 + t0_45 -4 d0_90 + 2 d0_91 = 0 
 + y0_34 + y0_38 + y0_46 + t0_46 -4 d0_92 + 2 d0_93 = 0 
 + y0_35 + y0_39 + y0_43 + t0_47 -4 d0_94 + 2 d0_95 = 0 
 + y0_52 + y0_56 + y0_60 + t0_48 -4 d0_96 + 2 d0_97 = 0 
 + y0_49 + y0_57 + y0_61 + t0_49 -4 d0_98 + 2 d0_99 = 0 
 + y0_50 + y0_54 + y0_62 + t0_50 -4 d0_100 + 2 d0_101 = 0 
 + y0_51 + y0_55 + y0_59 + t0_51 -4 d0_102 + 2 d0_103 = 0 
 + y0_48 + y0_52 + y0_56 + t0_52 -4 d0_104 + 2 d0_105 = 0 
 + y0_53 + y0_57 + y0_61 + t0_53 -4 d0_106 + 2 d0_107 = 0 
 + y0_50 + y0_58 + y0_62 + t0_54 -4 d0_108 + 2 d0_109 = 0 
 + y0_51 + y0_55 + y0_63 + t0_55 -4 d0_110 + 2 d0_111 = 0 
 + y0_48 + y0_52 + y0_60 + t0_56 -4 d0_112 + 2 d0_113 = 0 
 + y0_49 + y0_53 + y0_57 + t0_57 -4 d0_114 + 2 d0_115 = 0 
 + y0_54 + y0_58 + y0_62 + t0_58 -4 d0_116 + 2 d0_117 = 0 
 + y0_51 + y0_59 + y0_63 + t0_59 -4 d0_118 + 2 d0_119 = 0 
 + y0_48 + y0_56 + y0_60 + t0_60 -4 d0_120 + 2 d0_121 = 0 
 + y0_49 + y0_53 + y0_61 + t0_61 -4 d0_122 + 2 d0_123 = 0 
 + y0_50 + y0_54 + y0_58 + t0_62 -4 d0_124 + 2 d0_125 = 0 
 + y0_55 + y0_59 + y0_63 + t0_63 -4 d0_126 + 2 d0_127 = 0 
x1_0 - t0_0 = 0 
x1_1 - t0_1 = 0 
x1_2 - t0_2 = 0 
x1_3 - t0_3 = 0 
x1_4 - t0_20 = 0 
x1_5 - t0_21 = 0 
x1_6 - t0_22 = 0 
x1_7 - t0_23 = 0 
x1_8 - t0_40 = 0 
x1_9 - t0_41 = 0 
x1_10 - t0_42 = 0 
x1_11 - t0_43 = 0 
x1_12 - t0_60 = 0 
x1_13 - t0_61 = 0 
x1_14 - t0_62 = 0 
x1_15 - t0_63 = 0 
x1_16 - t0_16 = 0 
x1_17 - t0_17 = 0 
x1_18 - t0_18 = 0 
x1_19 - t0_19 = 0 
x1_20 - t0_36 = 0 
x1_21 - t0_37 = 0 
x1_22 - t0_38 = 0 
x1_23 - t0_39 = 0 
x1_24 - t0_56 = 0 
x1_25 - t0_57 = 0 
x1_26 - t0_58 = 0 
x1_27 - t0_59 = 0 
x1_28 - t0_12 = 0 
x1_29 - t0_13 = 0 
x1_30 - t0_14 = 0 
x1_31 - t0_15 = 0 
x1_32 - t0_32 = 0 
x1_33 - t0_33 = 0 
x1_34 - t0_34 = 0 
x1_35 - t0_35 = 0 
x1_36 - t0_52 = 0 
x1_37 - t0_53 = 0 
x1_38 - t0_54 = 0 
x1_39 - t0_55 = 0 
x1_40 - t0_8 = 0 
x1_41 - t0_9 = 0 
x1_42 - t0_10 = 0 
x1_43 - t0_11 = 0 
x1_44 - t0_28 = 0 
x1_45 - t0_29 = 0 
x1_46 - t0_30 = 0 
x1_47 - t0_31 = 0 
x1_48 - t0_48 = 0 
x1_49 - t0_49 = 0 
x1_50 - t0_50 = 0 
x1_51 - t0_51 = 0 
x1_52 - t0_4 = 0 
x1_53 - t0_5 = 0 
x1_54 - t0_6 = 0 
x1_55 - t0_7 = 0 
x1_56 - t0_24 = 0 
x1_57 - t0_25 = 0 
x1_58 - t0_26 = 0 
x1_59 - t0_27 = 0 
x1_60 - t0_44 = 0 
x1_61 - t0_45 = 0 
x1_62 - t0_46 = 0 
x1_63 - t0_47 = 0 
x1_0 + x1_1 + x1_2 + x1_3 - A1_0 >= 0 
A1_0 - x1_0 >= 0 
A1_0 - x1_1 >= 0 
A1_0 - x1_2 >= 0 
A1_0 - x1_3 >= 0 
x1_4 + x1_5 + x1_6 + x1_7 - A1_1 >= 0 
A1_1 - x1_4 >= 0 
A1_1 - x1_5 >= 0 
A1_1 - x1_6 >= 0 
A1_1 - x1_7 >= 0 
x1_8 + x1_9 + x1_10 + x1_11 - A1_2 >= 0 
A1_2 - x1_8 >= 0 
A1_2 - x1_9 >= 0 
A1_2 - x1_10 >= 0 
A1_2 - x1_11 >= 0 
x1_12 + x1_13 + x1_14 + x1_15 - A1_3 >= 0 
A1_3 - x1_12 >= 0 
A1_3 - x1_13 >= 0 
A1_3 - x1_14 >= 0 
A1_3 - x1_15 >= 0 
x1_16 + x1_17 + x1_18 + x1_19 - A1_4 >= 0 
A1_4 - x1_16 >= 0 
A1_4 - x1_17 >= 0 
A1_4 - x1_18 >= 0 
A1_4 - x1_19 >= 0 
x1_20 + x1_21 + x1_22 + x1_23 - A1_5 >= 0 
A1_5 - x1_20 >= 0 
A1_5 - x1_21 >= 0 
A1_5 - x1_22 >= 0 
A1_5 - x1_23 >= 0 
x1_24 + x1_25 + x1_26 + x1_27 - A1_6 >= 0 
A1_6 - x1_24 >= 0 
A1_6 - x1_25 >= 0 
A1_6 - x1_26 >= 0 
A1_6 - x1_27 >= 0 
x1_28 + x1_29 + x1_30 + x1_31 - A1_7 >= 0 
A1_7 - x1_28 >= 0 
A1_7 - x1_29 >= 0 
A1_7 - x1_30 >= 0 
A1_7 - x1_31 >= 0 
x1_32 + x1_33 + x1_34 + x1_35 - A1_8 >= 0 
A1_8 - x1_32 >= 0 
A1_8 - x1_33 >= 0 
A1_8 - x1_34 >= 0 
A1_8 - x1_35 >= 0 
x1_36 + x1_37 + x1_38 + x1_39 - A1_9 >= 0 
A1_9 - x1_36 >= 0 
A1_9 - x1_37 >= 0 
A1_9 - x1_38 >= 0 
A1_9 - x1_39 >= 0 
x1_40 + x1_41 + x1_42 + x1_43 - A1_10 >= 0 
A1_10 - x1_40 >= 0 
A1_10 - x1_41 >= 0 
A1_10 - x1_42 >= 0 
A1_10 - x1_43 >= 0 
x1_44 + x1_45 + x1_46 + x1_47 - A1_11 >= 0 
A1_11 - x1_44 >= 0 
A1_11 - x1_45 >= 0 
A1_11 - x1_46 >= 0 
A1_11 - x1_47 >= 0 
x1_48 + x1_49 + x1_50 + x1_51 - A1_12 >= 0 
A1_12 - x1_48 >= 0 
A1_12 - x1_49 >= 0 
A1_12 - x1_50 >= 0 
A1_12 - x1_51 >= 0 
x1_52 + x1_53 + x1_54 + x1_55 - A1_13 >= 0 
A1_13 - x1_52 >= 0 
A1_13 - x1_53 >= 0 
A1_13 - x1_54 >= 0 
A1_13 - x1_55 >= 0 
x1_56 + x1_57 + x1_58 + x1_59 - A1_14 >= 0 
A1_14 - x1_56 >= 0 
A1_14 - x1_57 >= 0 
A1_14 - x1_58 >= 0 
A1_14 - x1_59 >= 0 
x1_60 + x1_61 + x1_62 + x1_63 - A1_15 >= 0 
A1_15 - x1_60 >= 0 
A1_15 - x1_61 >= 0 
A1_15 - x1_62 >= 0 
A1_15 - x1_63 >= 0 
 + y1_4 + y1_8 + y1_12 + t1_0 -4 d1_0 + 2 d1_1 = 0 
 + y1_1 + y1_9 + y1_13 + t1_1 -4 d1_2 + 2 d1_3 = 0 
 + y1_2 + y1_6 + y1_14 + t1_2 -4 d1_4 + 2 d1_5 = 0 
 + y1_3 + y1_7 + y1_11 + t1_3 -4 d1_6 + 2 d1_7 = 0 
 + y1_0 + y1_4 + y1_8 + t1_4 -4 d1_8 + 2 d1_9 = 0 
 + y1_5 + y1_9 + y1_13 + t1_5 -4 d1_10 + 2 d1_11 = 0 
 + y1_2 + y1_10 + y1_14 + t1_6 -4 d1_12 + 2 d1_13 = 0 
 + y1_3 + y1_7 + y1_15 + t1_7 -4 d1_14 + 2 d1_15 = 0 
 + y1_0 + y1_4 + y1_12 + t1_8 -4 d1_16 + 2 d1_17 = 0 
 + y1_1 + y1_5 + y1_9 + t1_9 -4 d1_18 + 2 d1_19 = 0 
 + y1_6 + y1_10 + y1_14 + t1_10 -4 d1_20 + 2 d1_21 = 0 
 + y1_3 + y1_11 + y1_15 + t1_11 -4 d1_22 + 2 d1_23 = 0 
 + y1_0 + y1_8 + y1_12 + t1_12 -4 d1_24 + 2 d1_25 = 0 
 + y1_1 + y1_5 + y1_13 + t1_13 -4 d1_26 + 2 d1_27 = 0 
 + y1_2 + y1_6 + y1_10 + t1_14 -4 d1_28 + 2 d1_29 = 0 
 + y1_7 + y1_11 + y1_15 + t1_15 -4 d1_30 + 2 d1_31 = 0 
 + y1_16 + y1_20 + y1_24 + t1_16 -4 d1_32 + 2 d1_33 = 0 
 + y1_21 + y1_25 + y1_29 + t1_17 -4 d1_34 + 2 d1_35 = 0 
 + y1_18 + y1_26 + y1_30 + t1_18 -4 d1_36 + 2 d1_37 = 0 
 + y1_19 + y1_23 + y1_31 + t1_19 -4 d1_38 + 2 d1_39 = 0 
 + y1_16 + y1_20 + y1_28 + t1_20 -4 d1_40 + 2 d1_41 = 0 
 + y1_17 + y1_21 + y1_25 + t1_21 -4 d1_42 + 2 d1_43 = 0 
 + y1_22 + y1_26 + y1_30 + t1_22 -4 d1_44 + 2 d1_45 = 0 
 + y1_19 + y1_27 + y1_31 + t1_23 -4 d1_46 + 2 d1_47 = 0 
 + y1_16 + y1_24 + y1_28 + t1_24 -4 d1_48 + 2 d1_49 = 0 
 + y1_17 + y1_21 + y1_29 + t1_25 -4 d1_50 + 2 d1_51 = 0 
 + y1_18 + y1_22 + y1_26 + t1_26 -4 d1_52 + 2 d1_53 = 0 
 + y1_23 + y1_27 + y1_31 + t1_27 -4 d1_54 + 2 d1_55 = 0 
 + y1_20 + y1_24 + y1_28 + t1_28 -4 d1_56 + 2 d1_57 = 0 
 + y1_17 + y1_25 + y1_29 + t1_29 -4 d1_58 + 2 d1_59 = 0 
 + y1_18 + y1_22 + y1_30 + t1_30 -4 d1_60 + 2 d1_61 = 0 
 + y1_19 + y1_23 + y1_27 + t1_31 -4 d1_62 + 2 d1_63 = 0 
 + y1_32 + y1_36 + y1_40 + t1_32 -4 d1_64 + 2 d1_65 = 0 
 + y1_37 + y1_41 + y1_45 + t1_33 -4 d1_66 + 2 d1_67 = 0 
 + y1_34 + y1_42 + y1_46 + t1_34 -4 d1_68 + 2 d1_69 = 0 
 + y1_35 + y1_39 + y1_47 + t1_35 -4 d1_70 + 2 d1_71 = 0 
 + y1_32 + y1_36 + y1_44 + t1_36 -4 d1_72 + 2 d1_73 = 0 
 + y1_33 + y1_37 + y1_41 + t1_37 -4 d1_74 + 2 d1_75 = 0 
 + y1_38 + y1_42 + y1_46 + t1_38 -4 d1_76 + 2 d1_77 = 0 
 + y1_35 + y1_43 + y1_47 + t1_39 -4 d1_78 + 2 d1_79 = 0 
 + y1_32 + y1_40 + y1_44 + t1_40 -4 d1_80 + 2 d1_81 = 0 
 + y1_33 + y1_37 + y1_45 + t1_41 -4 d1_82 + 2 d1_83 = 0 
 + y1_34 + y1_38 + y1_42 + t1_42 -4 d1_84 + 2 d1_85 = 0 
 + y1_39 + y1_43 + y1_47 + t1_43 -4 d1_86 + 2 d1_87 = 0 
 + y1_36 + y1_40 + y1_44 + t1_44 -4 d1_88 + 2 d1_89 = 0 
 + y1_33 + y1_41 + y1_45 + t1_45 -4 d1_90 + 2 d1_91 = 0 
 + y1_34 + y1_38 + y1_46 + t1_46 -4 d1_92 + 2 d1_93 = 0 
 + y1_35 + y1_39 + y1_43 + t1_47 -4 d1_94 + 2 d1_95 = 0 
 + y1_52 + y1_56 + y1_60 + t1_48 -4 d1_96 + 2 d1_97 = 0 
 + y1_49 + y1_57 + y1_61 + t1_49 -4 d1_98 + 2 d1_99 = 0 
 + y1_50 + y1_54 + y1_62 + t1_50 -4 d1_100 + 2 d1_101 = 0 
 + y1_51 + y1_55 + y1_59 + t1_51 -4 d1_102 + 2 d1_103 = 0 
 + y1_48 + y1_52 + y1_56 + t1_52 -4 d1_104 + 2 d1_105 = 0 
 + y1_53 + y1_57 + y1_61 + t1_53 -4 d1_106 + 2 d1_107 = 0 
 + y1_50 + y1_58 + y1_62 + t1_54 -4 d1_108 + 2 d1_109 = 0 
 + y1_51 + y1_55 + y1_63 + t1_55 -4 d1_110 + 2 d1_111 = 0 
 + y1_48 + y1_52 + y1_60 + t1_56 -4 d1_112 + 2 d1_113 = 0 
 + y1_49 + y1_53 + y1_57 + t1_57 -4 d1_114 + 2 d1_115 = 0 
 + y1_54 + y1_58 + y1_62 + t1_58 -4 d1_116 + 2 d1_117 = 0 
 + y1_51 + y1_59 + y1_63 + t1_59 -4 d1_118 + 2 d1_119 = 0 
 + y1_48 + y1_56 + y1_60 + t1_60 -4 d1_120 + 2 d1_121 = 0 
 + y1_49 + y1_53 + y1_61 + t1_61 -4 d1_122 + 2 d1_123 = 0 
 + y1_50 + y1_54 + y1_58 + t1_62 -4 d1_124 + 2 d1_125 = 0 
 + y1_55 + y1_59 + y1_63 + t1_63 -4 d1_126 + 2 d1_127 = 0 
x2_0 - t1_0 = 0 
x2_1 - t1_1 = 0 
x2_2 - t1_2 = 0 
x2_3 - t1_3 = 0 
x2_4 - t1_20 = 0 
x2_5 - t1_21 = 0 
x2_6 - t1_22 = 0 
x2_7 - t1_23 = 0 
x2_8 - t1_40 = 0 
x2_9 - t1_41 = 0 
x2_10 - t1_42 = 0 
x2_11 - t1_43 = 0 
x2_12 - t1_60 = 0 
x2_13 - t1_61 = 0 
x2_14 - t1_62 = 0 
x2_15 - t1_63 = 0 
x2_16 - t1_16 = 0 
x2_17 - t1_17 = 0 
x2_18 - t1_18 = 0 
x2_19 - t1_19 = 0 
x2_20 - t1_36 = 0 
x2_21 - t1_37 = 0 
x2_22 - t1_38 = 0 
x2_23 - t1_39 = 0 
x2_24 - t1_56 = 0 
x2_25 - t1_57 = 0 
x2_26 - t1_58 = 0 
x2_27 - t1_59 = 0 
x2_28 - t1_12 = 0 
x2_29 - t1_13 = 0 
x2_30 - t1_14 = 0 
x2_31 - t1_15 = 0 
x2_32 - t1_32 = 0 
x2_33 - t1_33 = 0 
x2_34 - t1_34 = 0 
x2_35 - t1_35 = 0 
x2_36 - t1_52 = 0 
x2_37 - t1_53 = 0 
x2_38 - t1_54 = 0 
x2_39 - t1_55 = 0 
x2_40 - t1_8 = 0 
x2_41 - t1_9 = 0 
x2_42 - t1_10 = 0 
x2_43 - t1_11 = 0 
x2_44 - t1_28 = 0 
x2_45 - t1_29 = 0 
x2_46 - t1_30 = 0 
x2_47 - t1_31 = 0 
x2_48 - t1_48 = 0 
x2_49 - t1_49 = 0 
x2_50 - t1_50 = 0 
x2_51 - t1_51 = 0 
x2_52 - t1_4 = 0 
x2_53 - t1_5 = 0 
x2_54 - t1_6 = 0 
x2_55 - t1_7 = 0 
x2_56 - t1_24 = 0 
x2_57 - t1_25 = 0 
x2_58 - t1_26 = 0 
x2_59 - t1_27 = 0 
x2_60 - t1_44 = 0 
x2_61 - t1_45 = 0 
x2_62 - t1_46 = 0 
x2_63 - t1_47 = 0 
x2_0 + x2_1 + x2_2 + x2_3 - A2_0 >= 0 
A2_0 - x2_0 >= 0 
A2_0 - x2_1 >= 0 
A2_0 - x2_2 >= 0 
A2_0 - x2_3 >= 0 
x2_4 + x2_5 + x2_6 + x2_7 - A2_1 >= 0 
A2_1 - x2_4 >= 0 
A2_1 - x2_5 >= 0 
A2_1 - x2_6 >= 0 
A2_1 - x2_7 >= 0 
x2_8 + x2_9 + x2_10 + x2_11 - A2_2 >= 0 
A2_2 - x2_8 >= 0 
A2_2 - x2_9 >= 0 
A2_2 - x2_10 >= 0 
A2_2 - x2_11 >= 0 
x2_12 + x2_13 + x2_14 + x2_15 - A2_3 >= 0 
A2_3 - x2_12 >= 0 
A2_3 - x2_13 >= 0 
A2_3 - x2_14 >= 0 
A2_3 - x2_15 >= 0 
x2_16 + x2_17 + x2_18 + x2_19 - A2_4 >= 0 
A2_4 - x2_16 >= 0 
A2_4 - x2_17 >= 0 
A2_4 - x2_18 >= 0 
A2_4 - x2_19 >= 0 
x2_20 + x2_21 + x2_22 + x2_23 - A2_5 >= 0 
A2_5 - x2_20 >= 0 
A2_5 - x2_21 >= 0 
A2_5 - x2_22 >= 0 
A2_5 - x2_23 >= 0 
x2_24 + x2_25 + x2_26 + x2_27 - A2_6 >= 0 
A2_6 - x2_24 >= 0 
A2_6 - x2_25 >= 0 
A2_6 - x2_26 >= 0 
A2_6 - x2_27 >= 0 
x2_28 + x2_29 + x2_30 + x2_31 - A2_7 >= 0 
A2_7 - x2_28 >= 0 
A2_7 - x2_29 >= 0 
A2_7 - x2_30 >= 0 
A2_7 - x2_31 >= 0 
x2_32 + x2_33 + x2_34 + x2_35 - A2_8 >= 0 
A2_8 - x2_32 >= 0 
A2_8 - x2_33 >= 0 
A2_8 - x2_34 >= 0 
A2_8 - x2_35 >= 0 
x2_36 + x2_37 + x2_38 + x2_39 - A2_9 >= 0 
A2_9 - x2_36 >= 0 
A2_9 - x2_37 >= 0 
A2_9 - x2_38 >= 0 
A2_9 - x2_39 >= 0 
x2_40 + x2_41 + x2_42 + x2_43 - A2_10 >= 0 
A2_10 - x2_40 >= 0 
A2_10 - x2_41 >= 0 
A2_10 - x2_42 >= 0 
A2_10 - x2_43 >= 0 
x2_44 + x2_45 + x2_46 + x2_47 - A2_11 >= 0 
A2_11 - x2_44 >= 0 
A2_11 - x2_45 >= 0 
A2_11 - x2_46 >= 0 
A2_11 - x2_47 >= 0 
x2_48 + x2_49 + x2_50 + x2_51 - A2_12 >= 0 
A2_12 - x2_48 >= 0 
A2_12 - x2_49 >= 0 
A2_12 - x2_50 >= 0 
A2_12 - x2_51 >= 0 
x2_52 + x2_53 + x2_54 + x2_55 - A2_13 >= 0 
A2_13 - x2_52 >= 0 
A2_13 - x2_53 >= 0 
A2_13 - x2_54 >= 0 
A2_13 - x2_55 >= 0 
x2_56 + x2_57 + x2_58 + x2_59 - A2_14 >= 0 
A2_14 - x2_56 >= 0 
A2_14 - x2_57 >= 0 
A2_14 - x2_58 >= 0 
A2_14 - x2_59 >= 0 
x2_60 + x2_61 + x2_62 + x2_63 - A2_15 >= 0 
A2_15 - x2_60 >= 0 
A2_15 - x2_61 >= 0 
A2_15 - x2_62 >= 0 
A2_15 - x2_63 >= 0 
 + y2_4 + y2_8 + y2_12 + t2_0 -4 d2_0 + 2 d2_1 = 0 
 + y2_1 + y2_9 + y2_13 + t2_1 -4 d2_2 + 2 d2_3 = 0 
 + y2_2 + y2_6 + y2_14 + t2_2 -4 d2_4 + 2 d2_5 = 0 
 + y2_3 + y2_7 + y2_11 + t2_3 -4 d2_6 + 2 d2_7 = 0 
 + y2_0 + y2_4 + y2_8 + t2_4 -4 d2_8 + 2 d2_9 = 0 
 + y2_5 + y2_9 + y2_13 + t2_5 -4 d2_10 + 2 d2_11 = 0 
 + y2_2 + y2_10 + y2_14 + t2_6 -4 d2_12 + 2 d2_13 = 0 
 + y2_3 + y2_7 + y2_15 + t2_7 -4 d2_14 + 2 d2_15 = 0 
 + y2_0 + y2_4 + y2_12 + t2_8 -4 d2_16 + 2 d2_17 = 0 
 + y2_1 + y2_5 + y2_9 + t2_9 -4 d2_18 + 2 d2_19 = 0 
 + y2_6 + y2_10 + y2_14 + t2_10 -4 d2_20 + 2 d2_21 = 0 
 + y2_3 + y2_11 + y2_15 + t2_11 -4 d2_22 + 2 d2_23 = 0 
 + y2_0 + y2_8 + y2_12 + t2_12 -4 d2_24 + 2 d2_25 = 0 
 + y2_1 + y2_5 + y2_13 + t2_13 -4 d2_26 + 2 d2_27 = 0 
 + y2_2 + y2_6 + y2_10 + t2_14 -4 d2_28 + 2 d2_29 = 0 
 + y2_7 + y2_11 + y2_15 + t2_15 -4 d2_30 + 2 d2_31 = 0 
 + y2_16 + y2_20 + y2_24 + t2_16 -4 d2_32 + 2 d2_33 = 0 
 + y2_21 + y2_25 + y2_29 + t2_17 -4 d2_34 + 2 d2_35 = 0 
 + y2_18 + y2_26 + y2_30 + t2_18 -4 d2_36 + 2 d2_37 = 0 
 + y2_19 + y2_23 + y2_31 + t2_19 -4 d2_38 + 2 d2_39 = 0 
 + y2_16 + y2_20 + y2_28 + t2_20 -4 d2_40 + 2 d2_41 = 0 
 + y2_17 + y2_21 + y2_25 + t2_21 -4 d2_42 + 2 d2_43 = 0 
 + y2_22 + y2_26 + y2_30 + t2_22 -4 d2_44 + 2 d2_45 = 0 
 + y2_19 + y2_27 + y2_31 + t2_23 -4 d2_46 + 2 d2_47 = 0 
 + y2_16 + y2_24 + y2_28 + t2_24 -4 d2_48 + 2 d2_49 = 0 
 + y2_17 + y2_21 + y2_29 + t2_25 -4 d2_50 + 2 d2_51 = 0 
 + y2_18 + y2_22 + y2_26 + t2_26 -4 d2_52 + 2 d2_53 = 0 
 + y2_23 + y2_27 + y2_31 + t2_27 -4 d2_54 + 2 d2_55 = 0 
 + y2_20 + y2_24 + y2_28 + t2_28 -4 d2_56 + 2 d2_57 = 0 
 + y2_17 + y2_25 + y2_29 + t2_29 -4 d2_58 + 2 d2_59 = 0 
 + y2_18 + y2_22 + y2_30 + t2_30 -4 d2_60 + 2 d2_61 = 0 
 + y2_19 + y2_23 + y2_27 + t2_31 -4 d2_62 + 2 d2_63 = 0 
 + y2_32 + y2_36 + y2_40 + t2_32 -4 d2_64 + 2 d2_65 = 0 
 + y2_37 + y2_41 + y2_45 + t2_33 -4 d2_66 + 2 d2_67 = 0 
 + y2_34 + y2_42 + y2_46 + t2_34 -4 d2_68 + 2 d2_69 = 0 
 + y2_35 + y2_39 + y2_47 + t2_35 -4 d2_70 + 2 d2_71 = 0 
 + y2_32 + y2_36 + y2_44 + t2_36 -4 d2_72 + 2 d2_73 = 0 
 + y2_33 + y2_37 + y2_41 + t2_37 -4 d2_74 + 2 d2_75 = 0 
 + y2_38 + y2_42 + y2_46 + t2_38 -4 d2_76 + 2 d2_77 = 0 
 + y2_35 + y2_43 + y2_47 + t2_39 -4 d2_78 + 2 d2_79 = 0 
 + y2_32 + y2_40 + y2_44 + t2_40 -4 d2_80 + 2 d2_81 = 0 
 + y2_33 + y2_37 + y2_45 + t2_41 -4 d2_82 + 2 d2_83 = 0 
 + y2_34 + y2_38 + y2_42 + t2_42 -4 d2_84 + 2 d2_85 = 0 
 + y2_39 + y2_43 + y2_47 + t2_43 -4 d2_86 + 2 d2_87 = 0 
 + y2_36 + y2_40 + y2_44 + t2_44 -4 d2_88 + 2 d2_89 = 0 
 + y2_33 + y2_41 + y2_45 + t2_45 -4 d2_90 + 2 d2_91 = 0 
 + y2_34 + y2_38 + y2_46 + t2_46 -4 d2_92 + 2 d2_93 = 0 
 + y2_35 + y2_39 + y2_43 + t2_47 -4 d2_94 + 2 d2_95 = 0 
 + y2_52 + y2_56 + y2_60 + t2_48 -4 d2_96 + 2 d2_97 = 0 
 + y2_49 + y2_57 + y2_61 + t2_49 -4 d2_98 + 2 d2_99 = 0 
 + y2_50 + y2_54 + y2_62 + t2_50 -4 d2_100 + 2 d2_101 = 0 
 + y2_51 + y2_55 + y2_59 + t2_51 -4 d2_102 + 2 d2_103 = 0 
 + y2_48 + y2_52 + y2_56 + t2_52 -4 d2_104 + 2 d2_105 = 0 
 + y2_53 + y2_57 + y2_61 + t2_53 -4 d2_106 + 2 d2_107 = 0 
 + y2_50 + y2_58 + y2_62 + t2_54 -4 d2_108 + 2 d2_109 = 0 
 + y2_51 + y2_55 + y2_63 + t2_55 -4 d2_110 + 2 d2_111 = 0 
 + y2_48 + y2_52 + y2_60 + t2_56 -4 d2_112 + 2 d2_113 = 0 
 + y2_49 + y2_53 + y2_57 + t2_57 -4 d2_114 + 2 d2_115 = 0 
 + y2_54 + y2_58 + y2_62 + t2_58 -4 d2_116 + 2 d2_117 = 0 
 + y2_51 + y2_59 + y2_63 + t2_59 -4 d2_118 + 2 d2_119 = 0 
 + y2_48 + y2_56 + y2_60 + t2_60 -4 d2_120 + 2 d2_121 = 0 
 + y2_49 + y2_53 + y2_61 + t2_61 -4 d2_122 + 2 d2_123 = 0 
 + y2_50 + y2_54 + y2_58 + t2_62 -4 d2_124 + 2 d2_125 = 0 
 + y2_55 + y2_59 + y2_63 + t2_63 -4 d2_126 + 2 d2_127 = 0 
x3_0 - t2_0 = 0 
x3_1 - t2_1 = 0 
x3_2 - t2_2 = 0 
x3_3 - t2_3 = 0 
x3_4 - t2_20 = 0 
x3_5 - t2_21 = 0 
x3_6 - t2_22 = 0 
x3_7 - t2_23 = 0 
x3_8 - t2_40 = 0 
x3_9 - t2_41 = 0 
x3_10 - t2_42 = 0 
x3_11 - t2_43 = 0 
x3_12 - t2_60 = 0 
x3_13 - t2_61 = 0 
x3_14 - t2_62 = 0 
x3_15 - t2_63 = 0 
x3_16 - t2_16 = 0 
x3_17 - t2_17 = 0 
x3_18 - t2_18 = 0 
x3_19 - t2_19 = 0 
x3_20 - t2_36 = 0 
x3_21 - t2_37 = 0 
x3_22 - t2_38 = 0 
x3_23 - t2_39 = 0 
x3_24 - t2_56 = 0 
x3_25 - t2_57 = 0 
x3_26 - t2_58 = 0 
x3_27 - t2_59 = 0 
x3_28 - t2_12 = 0 
x3_29 - t2_13 = 0 
x3_30 - t2_14 = 0 
x3_31 - t2_15 = 0 
x3_32 - t2_32 = 0 
x3_33 - t2_33 = 0 
x3_34 - t2_34 = 0 
x3_35 - t2_35 = 0 
x3_36 - t2_52 = 0 
x3_37 - t2_53 = 0 
x3_38 - t2_54 = 0 
x3_39 - t2_55 = 0 
x3_40 - t2_8 = 0 
x3_41 - t2_9 = 0 
x3_42 - t2_10 = 0 
x3_43 - t2_11 = 0 
x3_44 - t2_28 = 0 
x3_45 - t2_29 = 0 
x3_46 - t2_30 = 0 
x3_47 - t2_31 = 0 
x3_48 - t2_48 = 0 
x3_49 - t2_49 = 0 
x3_50 - t2_50 = 0 
x3_51 - t2_51 = 0 
x3_52 - t2_4 = 0 
x3_53 - t2_5 = 0 
x3_54 - t2_6 = 0 
x3_55 - t2_7 = 0 
x3_56 - t2_24 = 0 
x3_57 - t2_25 = 0 
x3_58 - t2_26 = 0 
x3_59 - t2_27 = 0 
x3_60 - t2_44 = 0 
x3_61 - t2_45 = 0 
x3_62 - t2_46 = 0 
x3_63 - t2_47 = 0 
x3_0 + x3_1 + x3_2 + x3_3 - A3_0 >= 0 
A3_0 - x3_0 >= 0 
A3_0 - x3_1 >= 0 
A3_0 - x3_2 >= 0 
A3_0 - x3_3 >= 0 
x3_4 + x3_5 + x3_6 + x3_7 - A3_1 >= 0 
A3_1 - x3_4 >= 0 
A3_1 - x3_5 >= 0 
A3_1 - x3_6 >= 0 
A3_1 - x3_7 >= 0 
x3_8 + x3_9 + x3_10 + x3_11 - A3_2 >= 0 
A3_2 - x3_8 >= 0 
A3_2 - x3_9 >= 0 
A3_2 - x3_10 >= 0 
A3_2 - x3_11 >= 0 
x3_12 + x3_13 + x3_14 + x3_15 - A3_3 >= 0 
A3_3 - x3_12 >= 0 
A3_3 - x3_13 >= 0 
A3_3 - x3_14 >= 0 
A3_3 - x3_15 >= 0 
x3_16 + x3_17 + x3_18 + x3_19 - A3_4 >= 0 
A3_4 - x3_16 >= 0 
A3_4 - x3_17 >= 0 
A3_4 - x3_18 >= 0 
A3_4 - x3_19 >= 0 
x3_20 + x3_21 + x3_22 + x3_23 - A3_5 >= 0 
A3_5 - x3_20 >= 0 
A3_5 - x3_21 >= 0 
A3_5 - x3_22 >= 0 
A3_5 - x3_23 >= 0 
x3_24 + x3_25 + x3_26 + x3_27 - A3_6 >= 0 
A3_6 - x3_24 >= 0 
A3_6 - x3_25 >= 0 
A3_6 - x3_26 >= 0 
A3_6 - x3_27 >= 0 
x3_28 + x3_29 + x3_30 + x3_31 - A3_7 >= 0 
A3_7 - x3_28 >= 0 
A3_7 - x3_29 >= 0 
A3_7 - x3_30 >= 0 
A3_7 - x3_31 >= 0 
x3_32 + x3_33 + x3_34 + x3_35 - A3_8 >= 0 
A3_8 - x3_32 >= 0 
A3_8 - x3_33 >= 0 
A3_8 - x3_34 >= 0 
A3_8 - x3_35 >= 0 
x3_36 + x3_37 + x3_38 + x3_39 - A3_9 >= 0 
A3_9 - x3_36 >= 0 
A3_9 - x3_37 >= 0 
A3_9 - x3_38 >= 0 
A3_9 - x3_39 >= 0 
x3_40 + x3_41 + x3_42 + x3_43 - A3_10 >= 0 
A3_10 - x3_40 >= 0 
A3_10 - x3_41 >= 0 
A3_10 - x3_42 >= 0 
A3_10 - x3_43 >= 0 
x3_44 + x3_45 + x3_46 + x3_47 - A3_11 >= 0 
A3_11 - x3_44 >= 0 
A3_11 - x3_45 >= 0 
A3_11 - x3_46 >= 0 
A3_11 - x3_47 >= 0 
x3_48 + x3_49 + x3_50 + x3_51 - A3_12 >= 0 
A3_12 - x3_48 >= 0 
A3_12 - x3_49 >= 0 
A3_12 - x3_50 >= 0 
A3_12 - x3_51 >= 0 
x3_52 + x3_53 + x3_54 + x3_55 - A3_13 >= 0 
A3_13 - x3_52 >= 0 
A3_13 - x3_53 >= 0 
A3_13 - x3_54 >= 0 
A3_13 - x3_55 >= 0 
x3_56 + x3_57 + x3_58 + x3_59 - A3_14 >= 0 
A3_14 - x3_56 >= 0 
A3_14 - x3_57 >= 0 
A3_14 - x3_58 >= 0 
A3_14 - x3_59 >= 0 
x3_60 + x3_61 + x3_62 + x3_63 - A3_15 >= 0 
A3_15 - x3_60 >= 0 
A3_15 - x3_61 >= 0 
A3_15 - x3_62 >= 0 
A3_15 - x3_63 >= 0 
A0_0 + A0_1 + A0_2 + A0_3 + A0_4 + A0_5 + A0_6 + A0_7 + A0_8 + A0_9 + A0_10 + A0_11 + A0_12 + A0_13 + A0_14 + A0_15 <= 4
A1_0 + A1_1 + A1_2 + A1_3 + A1_4 + A1_5 + A1_6 + A1_7 + A1_8 + A1_9 + A1_10 + A1_11 + A1_12 + A1_13 + A1_14 + A1_15 <= 4
A2_0 + A2_1 + A2_2 + A2_3 + A2_4 + A2_5 + A2_6 + A2_7 + A2_8 + A2_9 + A2_10 + A2_11 + A2_12 + A2_13 + A2_14 + A2_15 <= 4
Binary
A0_0
A0_1
A0_2
A0_3
A0_4
A0_5
A0_6
A0_7
A0_8
A0_9
A0_10
A0_11
A0_12
A0_13
A0_14
A0_15
A1_0
A1_1
A1_2
A1_3
A1_4
A1_5
A1_6
A1_7
A1_8
A1_9
A1_10
A1_11
A1_12
A1_13
A1_14
A1_15
A2_0
A2_1
A2_2
A2_3
A2_4
A2_5
A2_6
A2_7
A2_8
A2_9
A2_10
A2_11
A2_12
A2_13
A2_14
A2_15
A3_0
A3_1
A3_2
A3_3
A3_4
A3_5
A3_6
A3_7
A3_8
A3_9
A3_10
A3_11
A3_12
A3_13
A3_14
A3_15
x0_0
x0_1
x0_2
x0_3
x0_4
x0_5
x0_6
x0_7
x0_8
x0_9
x0_10
x0_11
x0_12
x0_13
x0_14
x0_15
x0_16
x0_17
x0_18
x0_19
x0_20
x0_21
x0_22
x0_23
x0_24
x0_25
x0_26
x0_27
x0_28
x0_29
x0_30
x0_31
x0_32
x0_33
x0_34
x0_35
x0_36
x0_37
x0_38
x0_39
x0_40
x0_41
x0_42
x0_43
x0_44
x0_45
x0_46
x0_47
x0_48
x0_49
x0_50
x0_51
x0_52
x0_53
x0_54
x0_55
x0_56
x0_57
x0_58
x0_59
x0_60
x0_61
x0_62
x0_63
x1_0
x1_1
x1_2
x1_3
x1_4
x1_5
x1_6
x1_7
x1_8
x1_9
x1_10
x1_11
x1_12
x1_13
x1_14
x1_15
x1_16
x1_17
x1_18
x1_19
x1_20
x1_21
x1_22
x1_23
x1_24
x1_25
x1_26
x1_27
x1_28
x1_29
x1_30
x1_31
x1_32
x1_33
x1_34
x1_35
x1_36
x1_37
x1_38
x1_39
x1_40
x1_41
x1_42
x1_43
x1_44
x1_45
x1_46
x1_47
x1_48
x1_49
x1_50
x1_51
x1_52
x1_53
x1_54
x1_55
x1_56
x1_57
x1_58
x1_59
x1_60
x1_61
x1_62
x1_63
x2_0
x2_1
x2_2
x2_3
x2_4
x2_5
x2_6
x2_7
x2_8
x2_9
x2_10
x2_11
x2_12
x2_13
x2_14
x2_15
x2_16
x2_17
x2_18
x2_19
x2_20
x2_21
x2_22
x2_23
x2_24
x2_25
x2_26
x2_27
x2_28
x2_29
x2_30
x2_31
x2_32
x2_33
x2_34
x2_35
x2_36
x2_37
x2_38
x2_39
x2_40
x2_41
x2_42
x2_43
x2_44
x2_45
x2_46
x2_47
x2_48
x2_49
x2_50
x2_51
x2_52
x2_53
x2_54
x2_55
x2_56
x2_57
x2_58
x2_59
x2_60
x2_61
x2_62
x2_63
x3_0
x3_1
x3_2
x3_3
x3_4
x3_5
x3_6
x3_7
x3_8
x3_9
x3_10
x3_11
x3_12
x3_13
x3_14
x3_15
x3_16
x3_17
x3_18
x3_19
x3_20
x3_21
x3_22
x3_23
x3_24
x3_25
x3_26
x3_27
x3_28
x3_29
x3_30
x3_31
x3_32
x3_33
x3_34
x3_35
x3_36
x3_37
x3_38
x3_39
x3_40
x3_41
x3_42
x3_43
x3_44
x3_45
x3_46
x3_47
x3_48
x3_49
x3_50
x3_51
x3_52
x3_53
x3_54
x3_55
x3_56
x3_57
x3_58
x3_59
x3_60
x3_61
x3_62
x3_63
y0_0
y0_1
y0_2
y0_3
y0_4
y0_5
y0_6
y0_7
y0_8
y0_9
y0_10
y0_11
y0_12
y0_13
y0_14
y0_15
y0_16
y0_17
y0_18
y0_19
y0_20
y0_21
y0_22
y0_23
y0_24
y0_25
y0_26
y0_27
y0_28
y0_29
y0_30
y0_31
y0_32
y0_33
y0_34
y0_35
y0_36
y0_37
y0_38
y0_39
y0_40
y0_41
y0_42
y0_43
y0_44
y0_45
y0_46
y0_47
y0_48
y0_49
y0_50
y0_51
y0_52
y0_53
y0_54
y0_55
y0_56
y0_57
y0_58
y0_59
y0_60
y0_61
y0_62
y0_63
y1_0
y1_1
y1_2
y1_3
y1_4
y1_5
y1_6
y1_7
y1_8
y1_9
y1_10
y1_11
y1_12
y1_13
y1_14
y1_15
y1_16
y1_17
y1_18
y1_19
y1_20
y1_21
y1_22
y1_23
y1_24
y1_25
y1_26
y1_27
y1_28
y1_29
y1_30
y1_31
y1_32
y1_33
y1_34
y1_35
y1_36
y1_37
y1_38
y1_39
y1_40
y1_41
y1_42
y1_43
y1_44
y1_45
y1_46
y1_47
y1_48
y1_49
y1_50
y1_51
y1_52
y1_53
y1_54
y1_55
y1_56
y1_57
y1_58
y1_59
y1_60
y1_61
y1_62
y1_63
y2_0
y2_1
y2_2
y2_3
y2_4
y2_5
y2_6
y2_7
y2_8
y2_9
y2_10
y2_11
y2_12
y2_13
y2_14
y2_15
y2_16
y2_17
y2_18
y2_19
y2_20
y2_21
y2_22
y2_23
y2_24
y2_25
y2_26
y2_27
y2_28
y2_29
y2_30
y2_31
y2_32
y2_33
y2_34
y2_35
y2_36
y2_37
y2_38
y2_39
y2_40
y2_41
y2_42
y2_43
y2_44
y2_45
y2_46
y2_47
y2_48
y2_49
y2_50
y2_51
y2_52
y2_53
y2_54
y2_55
y2_56
y2_57
y2_58
y2_59
y2_60
y2_61
y2_62
y2_63
y3_0
y3_1
y3_2
y3_3
y3_4
y3_5
y3_6
y3_7
y3_8
y3_9
y3_10
y3_11
y3_12
y3_13
y3_14
y3_15
y3_16
y3_17
y3_18
y3_19
y3_20
y3_21
y3_22
y3_23
y3_24
y3_25
y3_26
y3_27
y3_28
y3_29
y3_30
y3_31
y3_32
y3_33
y3_34
y3_35
y3_36
y3_37
y3_38
y3_39
y3_40
y3_41
y3_42
y3_43
y3_44
y3_45
y3_46
y3_47
y3_48
y3_49
y3_50
y3_51
y3_52
y3_53
y3_54
y3_55
y3_56
y3_57
y3_58
y3_59
y3_60
y3_61
y3_62
y3_63
t0_0
t0_1
t0_2
t0_3
t0_4
t0_5
t0_6
t0_7
t0_8
t0_9
t0_10
t0_11
t0_12
t0_13
t0_14
t0_15
t0_16
t0_17
t0_18
t0_19
t0_20
t0_21
t0_22
t0_23
t0_24
t0_25
t0_26
t0_27
t0_28
t0_29
t0_30
t0_31
t0_32
t0_33
t0_34
t0_35
t0_36
t0_37
t0_38
t0_39
t0_40
t0_41
t0_42
t0_43
t0_44
t0_45
t0_46
t0_47
t0_48
t0_49
t0_50
t0_51
t0_52
t0_53
t0_54
t0_55
t0_56
t0_57
t0_58
t0_59
t0_60
t0_61
t0_62
t0_63
t1_0
t1_1
t1_2
t1_3
t1_4
t1_5
t1_6
t1_7
t1_8
t1_9
t1_10
t1_11
t1_12
t1_13
t1_14
t1_15
t1_16
t1_17
t1_18
t1_19
t1_20
t1_21
t1_22
t1_23
t1_24
t1_25
t1_26
t1_27
t1_28
t1_29
t1_30
t1_31
t1_32
t1_33
t1_34
t1_35
t1_36
t1_37
t1_38
t1_39
t1_40
t1_41
t1_42
t1_43
t1_44
t1_45
t1_46
t1_47
t1_48
t1_49
t1_50
t1_51
t1_52
t1_53
t1_54
t1_55
t1_56
t1_57
t1_58
t1_59
t1_60
t1_61
t1_62
t1_63
t2_0
t2_1
t2_2
t2_3
t2_4
t2_5
t2_6
t2_7
t2_8
t2_9
t2_10
t2_11
t2_12
t2_13
t2_14
t2_15
t2_16
t2_17
t2_18
t2_19
t2_20
t2_21
t2_22
t2_23
t2_24
t2_25
t2_26
t2_27
t2_28
t2_29
t2_30
t2_31
t2_32
t2_33
t2_34
t2_35
t2_36
t2_37
t2_38
t2_39
t2_40
t2_41
t2_42
t2_43
t2_44
t2_45
t2_46
t2_47
t2_48
t2_49
t2_50
t2_51
t2_52
t2_53
t2_54
t2_55
t2_56
t2_57
t2_58
t2_59
t2_60
t2_61
t2_62
t2_63
p0_0_0
p0_0_1
p0_0_2
p0_0_3
p0_0_4
p0_0_5
p0_0_6
p0_0_7
p0_0_8
p0_0_9
p0_0_10
p0_0_11
p0_0_12
p0_0_13
p0_0_14
p0_0_15
p0_1_0
p0_1_1
p0_1_2
p0_1_3
p0_1_4
p0_1_5
p0_1_6
p0_1_7
p0_1_8
p0_1_9
p0_1_10
p0_1_11
p0_1_12
p0_1_13
p0_1_14
p0_1_15
p0_2_0
p0_2_1
p0_2_2
p0_2_3
p0_2_4
p0_2_5
p0_2_6
p0_2_7
p0_2_8
p0_2_9
p0_2_10
p0_2_11
p0_2_12
p0_2_13
p0_2_14
p0_2_15
p0_3_0
p0_3_1
p0_3_2
p0_3_3
p0_3_4
p0_3_5
p0_3_6
p0_3_7
p0_3_8
p0_3_9
p0_3_10
p0_3_11
p0_3_12
p0_3_13
p0_3_14
p0_3_15
p1_0_0
p1_0_1
p1_0_2
p1_0_3
p1_0_4
p1_0_5
p1_0_6
p1_0_7
p1_0_8
p1_0_9
p1_0_10
p1_0_11
p1_0_12
p1_0_13
p1_0_14
p1_0_15
p1_1_0
p1_1_1
p1_1_2
p1_1_3
p1_1_4
p1_1_5
p1_1_6
p1_1_7
p1_1_8
p1_1_9
p1_1_10
p1_1_11
p1_1_12
p1_1_13
p1_1_14
p1_1_15
p1_2_0
p1_2_1
p1_2_2
p1_2_3
p1_2_4
p1_2_5
p1_2_6
p1_2_7
p1_2_8
p1_2_9
p1_2_10
p1_2_11
p1_2_12
p1_2_13
p1_2_14
p1_2_15
p1_3_0
p1_3_1
p1_3_2
p1_3_3
p1_3_4
p1_3_5
p1_3_6
p1_3_7
p1_3_8
p1_3_9
p1_3_10
p1_3_11
p1_3_12
p1_3_13
p1_3_14
p1_3_15
d0_0
d0_1
d0_2
d0_3
d0_4
d0_5
d0_6
d0_7
d0_8
d0_9
d0_10
d0_11
d0_12
d0_13
d0_14
d0_15
d0_16
d0_17
d0_18
d0_19
d0_20
d0_21
d0_22
d0_23
d0_24
d0_25
d0_26
d0_27
d0_28
d0_29
d0_30
d0_31
d0_32
d0_33
d0_34
d0_35
d0_36
d0_37
d0_38
d0_39
d0_40
d0_41
d0_42
d0_43
d0_44
d0_45
d0_46
d0_47
d0_48
d0_49
d0_50
d0_51
d0_52
d0_53
d0_54
d0_55
d0_56
d0_57
d0_58
d0_59
d0_60
d0_61
d0_62
d0_63
d0_64
d0_65
d0_66
d0_67
d0_68
d0_69
d0_70
d0_71
d0_72
d0_73
d0_74
d0_75
d0_76
d0_77
d0_78
d0_79
d0_80
d0_81
d0_82
d0_83
d0_84
d0_85
d0_86
d0_87
d0_88
d0_89
d0_90
d0_91
d0_92
d0_93
d0_94
d0_95
d0_96
d0_97
d0_98
d0_99
d0_100
d0_101
d0_102
d0_103
d0_104
d0_105
d0_106
d0_107
d0_108
d0_109
d0_110
d0_111
d0_112
d0_113
d0_114
d0_115
d0_116
d0_117
d0_118
d0_119
d0_120
d0_121
d0_122
d0_123
d0_124
d0_125
d0_126
d0_127
d1_0
d1_1
d1_2
d1_3
d1_4
d1_5
d1_6
d1_7
d1_8
d1_9
d1_10
d1_11
d1_12
d1_13
d1_14
d1_15
d1_16
d1_17
d1_18
d1_19
d1_20
d1_21
d1_22
d1_23
d1_24
d1_25
d1_26
d1_27
d1_28
d1_29
d1_30
d1_31
d1_32
d1_33
d1_34
d1_35
d1_36
d1_37
d1_38
d1_39
d1_40
d1_41
d1_42
d1_43
d1_44
d1_45
d1_46
d1_47
d1_48
d1_49
d1_50
d1_51
d1_52
d1_53
d1_54
d1_55
d1_56
d1_57
d1_58
d1_59
d1_60
d1_61
d1_62
d1_63
d1_64
d1_65
d1_66
d1_67
d1_68
d1_69
d1_70
d1_71
d1_72
d1_73
d1_74
d1_75
d1_76
d1_77
d1_78
d1_79
d1_80
d1_81
d1_82
d1_83
d1_84
d1_85
d1_86
d1_87
d1_88
d1_89
d1_90
d1_91
d1_92
d1_93
d1_94
d1_95
d1_96
d1_97
d1_98
d1_99
d1_100
d1_101
d1_102
d1_103
d1_104
d1_105
d1_106
d1_107
d1_108
d1_109
d1_110
d1_111
d1_112
d1_113
d1_114
d1_115
d1_116
d1_117
d1_118
d1_119
d1_120
d1_121
d1_122
d1_123
d1_124
d1_125
d1_126
d1_127
d2_0
d2_1
d2_2
d2_3
d2_4
d2_5
d2_6
d2_7
d2_8
d2_9
d2_10
d2_11
d2_12
d2_13
d2_14
d2_15
d2_16
d2_17
d2_18
d2_19
d2_20
d2_21
d2_22
d2_23
d2_24
d2_25
d2_26
d2_27
d2_28
d2_29
d2_30
d2_31
d2_32
d2_33
d2_34
d2_35
d2_36
d2_37
d2_38
d2_39
d2_40
d2_41
d2_42
d2_43
d2_44
d2_45
d2_46
d2_47
d2_48
d2_49
d2_50
d2_51
d2_52
d2_53
d2_54
d2_55
d2_56
d2_57
d2_58
d2_59
d2_60
d2_61
d2_62
d2_63
d2_64
d2_65
d2_66
d2_67
d2_68
d2_69
d2_70
d2_71
d2_72
d2_73
d2_74
d2_75
d2_76
d2_77
d2_78
d2_79
d2_80
d2_81
d2_82
d2_83
d2_84
d2_85
d2_86
d2_87
d2_88
d2_89
d2_90
d2_91
d2_92
d2_93
d2_94
d2_95
d2_96
d2_97
d2_98
d2_99
d2_100
d2_101
d2_102
d2_103
d2_104
d2_105
d2_106
d2_107
d2_108
d2_109
d2_110
d2_111
d2_112
d2_113
d2_114
d2_115
d2_116
d2_117
d2_118
d2_119
d2_120
d2_121
d2_122
d2_123
d2_124
d2_125
d2_126
d2_127
