Minimize
2 p0_0_0 + 4 p1_0_0 + 2 p0_0_1 + 4 p1_0_1 + 2 p0_0_2 + 4 p1_0_2 + 2 p0_0_3 + 4 p1_0_3 + 2 p0_0_4 + 4 p1_0_4 + 2 p0_0_5 + 4 p1_0_5 + 2 p0_0_6 + 4 p1_0_6 + 2 p0_0_7 + 4 p1_0_7 + 2 p0_0_8 + 4 p1_0_8 + 2 p0_0_9 + 4 p1_0_9 + 2 p0_0_10 + 4 p1_0_10 + 2 p0_0_11 + 4 p1_0_11 + 2 p0_0_12 + 4 p1_0_12 + 2 p0_0_13 + 4 p1_0_13 + 2 p0_0_14 + 4 p1_0_14 + 2 p0_0_15 + 4 p1_0_15 + 2 p0_1_0 + 4 p1_1_0 + 2 p0_1_1 + 4 p1_1_1 + 2 p0_1_2 + 4 p1_1_2 + 2 p0_1_3 + 4 p1_1_3 + 2 p0_1_4 + 4 p1_1_4 + 2 p0_1_5 + 4 p1_1_5 + 2 p0_1_6 + 4 p1_1_6 + 2 p0_1_7 + 4 p1_1_7 + 2 p0_1_8 + 4 p1_1_8 + 2 p0_1_9 + 4 p1_1_9 + 2 p0_1_10 + 4 p1_1_10 + 2 p0_1_11 + 4 p1_1_11 + 2 p0_1_12 + 4 p1_1_12 + 2 p0_1_13 + 4 p1_1_13 + 2 p0_1_14 + 4 p1_1_14 + 2 p0_1_15 + 4 p1_1_15 + 2 p0_2_0 + 4 p1_2_0 + 2 p0_2_1 + 4 p1_2_1 + 2 p0_2_2 + 4 p1_2_2 + 2 p0_2_3 + 4 p1_2_3 + 2 p0_2_4 + 4 p1_2_4 + 2 p0_2_5 + 4 p1_2_5 + 2 p0_2_6 + 4 p1_2_6 + 2 p0_2_7 + 4 p1_2_7 + 2 p0_2_8 + 4 p1_2_8 + 2 p0_2_9 + 4 p1_2_9 + 2 p0_2_10 + 4 p1_2_10 + 2 p0_2_11 + 4 p1_2_11 + 2 p0_2_12 + 4 p1_2_12 + 2 p0_2_13 + 4 p1_2_13 + 2 p0_2_14 + 4 p1_2_14 + 2 p0_2_15 + 4 p1_2_15
Subject to
x0_0 + x0_1 + x0_2 + x0_3 + x0_4 + x0_5 + x0_6 + x0_7 + x0_8 + x0_9 + x0_10 + x0_11 + x0_12 + x0_13 + x0_14 + x0_15 + x0_16 + x0_17 + x0_18 + x0_19 + x0_20 + x0_21 + x0_22 + x0_23 + x0_24 + x0_25 + x0_26 + x0_27 + x0_28 + x0_29 + x0_30 + x0_31 + x0_32 + x0_33 + x0_34 + x0_35 + x0_36 + x0_37 + x0_38 + x0_39 + x0_40 + x0_41 + x0_42 + x0_43 + x0_44 + x0_45 + x0_46 + x0_47 + x0_48 + x0_49 + x0_50 + x0_51 + x0_52 + x0_53 + x0_54 + x0_55 + x0_56 + x0_57 + x0_58 + x0_59 + x0_60 + x0_61 + x0_62 + x0_63 >= 1 
x0_0 + x0_1 + x0_2 + x0_3 - A0_0 >= 0 
A0_0 - x0_0 >= 0 
A0_0 - x0_1 >= 0 
A0_0 - x0_2 >= 0 
A0_0 - x0_3 >= 0 
x0_4 + x0_5 + x0_6 + x0_7 - A0_1 >= 0 
A0_1 - x0_4 >= 0 
A0_1 - x0_5 >= 0 
A0_1 - x0_6 >= 0 
A0_1 - x0_7 >= 0 
x0_8 + x0_9 + x0_10 + x0_11 - A0_2 >= 0 
A0_2 - x0_8 >= 0 
A0_2 - x0_9 >= 0 
A0_2 - x0_10 >= 0 
A0_2 - x0_11 >= 0 
x0_12 + x0_13 + x0_14 + x0_15 - A0_3 >= 0 
A0_3 - x0_12 >= 0 
A0_3 - x0_13 >= 0 
A0_3 - x0_14 >= 0 
A0_3 - x0_15 >= 0 
x0_16 + x0_17 + x0_18 + x0_19 - A0_4 >= 0 
A0_4 - x0_16 >= 0 
A0_4 - x0_17 >= 0 
A0_4 - x0_18 >= 0 
A0_4 - x0_19 >= 0 
x0_20 + x0_21 + x0_22 + x0_23 - A0_5 >= 0 
A0_5 - x0_20 >= 0 
A0_5 - x0_21 >= 0 
A0_5 - x0_22 >= 0 
A0_5 - x0_23 >= 0 
x0_24 + x0_25 + x0_26 + x0_27 - A0_6 >= 0 
A0_6 - x0_24 >= 0 
A0_6 - x0_25 >= 0 
A0_6 - x0_26 >= 0 
A0_6 - x0_27 >= 0 
x0_28 + x0_29 + x0_30 + x0_31 - A0_7 >= 0 
A0_7 - x0_28 >= 0 
A0_7 - x0_29 >= 0 
A0_7 - x0_30 >= 0 
A0_7 - x0_31 >= 0 
x0_32 + x0_33 + x0_34 + x0_35 - A0_8 >= 0 
A0_8 - x0_32 >= 0 
A0_8 - x0_33 >= 0 
A0_8 - x0_34 >= 0 
A0_8 - x0_35 >= 0 
x0_36 + x0_37 + x0_38 + x0_39 - A0_9 >= 0 
A0_9 - x0_36 >= 0 
A0_9 - x0_37 >= 0 
A0_9 - x0_38 >= 0 
A0_9 - x0_39 >= 0 
x0_40 + x0_41 + x0_42 + x0_43 - A0_10 >= 0 
A0_10 - x0_40 >= 0 
A0_10 - x0_41 >= 0 
A0_10 - x0_42 >= 0 
A0_10 - x0_43 >= 0 
x0_44 + x0_45 + x0_46 + x0_47 - A0_11 >= 0 
A0_11 - x0_44 >= 0 
A0_11 - x0_45 >= 0 
A0_11 - x0_46 >= 0 
A0_11 - x0_47 >= 0 
x0_48 + x0_49 + x0_50 + x0_51 - A0_12 >= 0 
A0_12 - x0_48 >= 0 
A0_12 - x0_49 >= 0 
A0_12 - x0_50 >= 0 
A0_12 - x0_51 >= 0 
x0_52 + x0_53 + x0_54 + x0_55 - A0_13 >= 0 
A0_13 - x0_52 >= 0 
A0_13 - x0_53 >= 0 
A0_13 - x0_54 >= 0 
A0_13 - x0_55 >= 0 
x0_56 + x0_57 + x0_58 + x0_59 - A0_14 >= 0 
A0_14 - x0_56 >= 0 
A0_14 - x0_57 >= 0 
A0_14 - x0_58 >= 0 
A0_14 - x0_59 >= 0 
x0_60 + x0_61 + x0_62 + x0_63 - A0_15 >= 0 
A0_15 - x0_60 >= 0 
A0_15 - x0_61 >= 0 
A0_15 - x0_62 >= 0 
A0_15 - x0_63 >= 0 
y0_8 -1 y0_4 + 1 d0_0 >= 0 
y0_4 -1 y0_8 + 1 d0_0 >= 0 
y0_8 + 1 y0_4 -1 d0_0 >= 0 
y0_4 + 1 y0_8 + 1 d0_0 <= 2 
-1 d0_0 + 1 y0_12 + 1 t0_0 >= 0 
d0_0 -1 y0_12 + 1 t0_0 >= 0 
d0_0 + 1 y0_12 -1 t0_0 >= 0 
d0_0 + 1 y0_12 + 1 t0_0 <= 2 
y0_9 -1 y0_1 + 1 d0_1 >= 0 
y0_1 -1 y0_9 + 1 d0_1 >= 0 
y0_9 + 1 y0_1 -1 d0_1 >= 0 
y0_1 + 1 y0_9 + 1 d0_1 <= 2 
-1 d0_1 + 1 y0_13 + 1 t0_1 >= 0 
d0_1 -1 y0_13 + 1 t0_1 >= 0 
d0_1 + 1 y0_13 -1 t0_1 >= 0 
d0_1 + 1 y0_13 + 1 t0_1 <= 2 
y0_6 -1 y0_2 + 1 d0_2 >= 0 
y0_2 -1 y0_6 + 1 d0_2 >= 0 
y0_6 + 1 y0_2 -1 d0_2 >= 0 
y0_2 + 1 y0_6 + 1 d0_2 <= 2 
-1 d0_2 + 1 y0_14 + 1 t0_2 >= 0 
d0_2 -1 y0_14 + 1 t0_2 >= 0 
d0_2 + 1 y0_14 -1 t0_2 >= 0 
d0_2 + 1 y0_14 + 1 t0_2 <= 2 
y0_7 -1 y0_3 + 1 d0_3 >= 0 
y0_3 -1 y0_7 + 1 d0_3 >= 0 
y0_7 + 1 y0_3 -1 d0_3 >= 0 
y0_3 + 1 y0_7 + 1 d0_3 <= 2 
-1 d0_3 + 1 y0_11 + 1 t0_3 >= 0 
d0_3 -1 y0_11 + 1 t0_3 >= 0 
d0_3 + 1 y0_11 -1 t0_3 >= 0 
d0_3 + 1 y0_11 + 1 t0_3 <= 2 
y0_4 -1 y0_0 + 1 d0_4 >= 0 
y0_0 -1 y0_4 + 1 d0_4 >= 0 
y0_4 + 1 y0_0 -1 d0_4 >= 0 
y0_0 + 1 y0_4 + 1 d0_4 <= 2 
-1 d0_4 + 1 y0_8 + 1 t0_4 >= 0 
d0_4 -1 y0_8 + 1 t0_4 >= 0 
d0_4 + 1 y0_8 -1 t0_4 >= 0 
d0_4 + 1 y0_8 + 1 t0_4 <= 2 
y0_9 -1 y0_5 + 1 d0_5 >= 0 
y0_5 -1 y0_9 + 1 d0_5 >= 0 
y0_9 + 1 y0_5 -1 d0_5 >= 0 
y0_5 + 1 y0_9 + 1 d0_5 <= 2 
-1 d0_5 + 1 y0_13 + 1 t0_5 >= 0 
d0_5 -1 y0_13 + 1 t0_5 >= 0 
d0_5 + 1 y0_13 -1 t0_5 >= 0 
d0_5 + 1 y0_13 + 1 t0_5 <= 2 
y0_10 -1 y0_2 + 1 d0_6 >= 0 
y0_2 -1 y0_10 + 1 d0_6 >= 0 
y0_10 + 1 y0_2 -1 d0_6 >= 0 
y0_2 + 1 y0_10 + 1 d0_6 <= 2 
-1 d0_6 + 1 y0_14 + 1 t0_6 >= 0 
d0_6 -1 y0_14 + 1 t0_6 >= 0 
d0_6 + 1 y0_14 -1 t0_6 >= 0 
d0_6 + 1 y0_14 + 1 t0_6 <= 2 
y0_7 -1 y0_3 + 1 d0_7 >= 0 
y0_3 -1 y0_7 + 1 d0_7 >= 0 
y0_7 + 1 y0_3 -1 d0_7 >= 0 
y0_3 + 1 y0_7 + 1 d0_7 <= 2 
-1 d0_7 + 1 y0_15 + 1 t0_7 >= 0 
d0_7 -1 y0_15 + 1 t0_7 >= 0 
d0_7 + 1 y0_15 -1 t0_7 >= 0 
d0_7 + 1 y0_15 + 1 t0_7 <= 2 
y0_4 -1 y0_0 + 1 d0_8 >= 0 
y0_0 -1 y0_4 + 1 d0_8 >= 0 
y0_4 + 1 y0_0 -1 d0_8 >= 0 
y0_0 + 1 y0_4 + 1 d0_8 <= 2 
-1 d0_8 + 1 y0_12 + 1 t0_8 >= 0 
d0_8 -1 y0_12 + 1 t0_8 >= 0 
d0_8 + 1 y0_12 -1 t0_8 >= 0 
d0_8 + 1 y0_12 + 1 t0_8 <= 2 
y0_5 -1 y0_1 + 1 d0_9 >= 0 
y0_1 -1 y0_5 + 1 d0_9 >= 0 
y0_5 + 1 y0_1 -1 d0_9 >= 0 
y0_1 + 1 y0_5 + 1 d0_9 <= 2 
-1 d0_9 + 1 y0_9 + 1 t0_9 >= 0 
d0_9 -1 y0_9 + 1 t0_9 >= 0 
d0_9 + 1 y0_9 -1 t0_9 >= 0 
d0_9 + 1 y0_9 + 1 t0_9 <= 2 
y0_10 -1 y0_6 + 1 d0_10 >= 0 
y0_6 -1 y0_10 + 1 d0_10 >= 0 
y0_10 + 1 y0_6 -1 d0_10 >= 0 
y0_6 + 1 y0_10 + 1 d0_10 <= 2 
-1 d0_10 + 1 y0_14 + 1 t0_10 >= 0 
d0_10 -1 y0_14 + 1 t0_10 >= 0 
d0_10 + 1 y0_14 -1 t0_10 >= 0 
d0_10 + 1 y0_14 + 1 t0_10 <= 2 
y0_11 -1 y0_3 + 1 d0_11 >= 0 
y0_3 -1 y0_11 + 1 d0_11 >= 0 
y0_11 + 1 y0_3 -1 d0_11 >= 0 
y0_3 + 1 y0_11 + 1 d0_11 <= 2 
-1 d0_11 + 1 y0_15 + 1 t0_11 >= 0 
d0_11 -1 y0_15 + 1 t0_11 >= 0 
d0_11 + 1 y0_15 -1 t0_11 >= 0 
d0_11 + 1 y0_15 + 1 t0_11 <= 2 
y0_8 -1 y0_0 + 1 d0_12 >= 0 
y0_0 -1 y0_8 + 1 d0_12 >= 0 
y0_8 + 1 y0_0 -1 d0_12 >= 0 
y0_0 + 1 y0_8 + 1 d0_12 <= 2 
-1 d0_12 + 1 y0_12 + 1 t0_12 >= 0 
d0_12 -1 y0_12 + 1 t0_12 >= 0 
d0_12 + 1 y0_12 -1 t0_12 >= 0 
d0_12 + 1 y0_12 + 1 t0_12 <= 2 
y0_5 -1 y0_1 + 1 d0_13 >= 0 
y0_1 -1 y0_5 + 1 d0_13 >= 0 
y0_5 + 1 y0_1 -1 d0_13 >= 0 
y0_1 + 1 y0_5 + 1 d0_13 <= 2 
-1 d0_13 + 1 y0_13 + 1 t0_13 >= 0 
d0_13 -1 y0_13 + 1 t0_13 >= 0 
d0_13 + 1 y0_13 -1 t0_13 >= 0 
d0_13 + 1 y0_13 + 1 t0_13 <= 2 
y0_6 -1 y0_2 + 1 d0_14 >= 0 
y0_2 -1 y0_6 + 1 d0_14 >= 0 
y0_6 + 1 y0_2 -1 d0_14 >= 0 
y0_2 + 1 y0_6 + 1 d0_14 <= 2 
-1 d0_14 + 1 y0_10 + 1 t0_14 >= 0 
d0_14 -1 y0_10 + 1 t0_14 >= 0 
d0_14 + 1 y0_10 -1 t0_14 >= 0 
d0_14 + 1 y0_10 + 1 t0_14 <= 2 
y0_11 -1 y0_7 + 1 d0_15 >= 0 
y0_7 -1 y0_11 + 1 d0_15 >= 0 
y0_11 + 1 y0_7 -1 d0_15 >= 0 
y0_7 + 1 y0_11 + 1 d0_15 <= 2 
-1 d0_15 + 1 y0_15 + 1 t0_15 >= 0 
d0_15 -1 y0_15 + 1 t0_15 >= 0 
d0_15 + 1 y0_15 -1 t0_15 >= 0 
d0_15 + 1 y0_15 + 1 t0_15 <= 2 
y0_20 -1 y0_16 + 1 d0_16 >= 0 
y0_16 -1 y0_20 + 1 d0_16 >= 0 
y0_20 + 1 y0_16 -1 d0_16 >= 0 
y0_16 + 1 y0_20 + 1 d0_16 <= 2 
-1 d0_16 + 1 y0_24 + 1 t0_16 >= 0 
d0_16 -1 y0_24 + 1 t0_16 >= 0 
d0_16 + 1 y0_24 -1 t0_16 >= 0 
d0_16 + 1 y0_24 + 1 t0_16 <= 2 
y0_25 -1 y0_21 + 1 d0_17 >= 0 
y0_21 -1 y0_25 + 1 d0_17 >= 0 
y0_25 + 1 y0_21 -1 d0_17 >= 0 
y0_21 + 1 y0_25 + 1 d0_17 <= 2 
-1 d0_17 + 1 y0_29 + 1 t0_17 >= 0 
d0_17 -1 y0_29 + 1 t0_17 >= 0 
d0_17 + 1 y0_29 -1 t0_17 >= 0 
d0_17 + 1 y0_29 + 1 t0_17 <= 2 
y0_26 -1 y0_18 + 1 d0_18 >= 0 
y0_18 -1 y0_26 + 1 d0_18 >= 0 
y0_26 + 1 y0_18 -1 d0_18 >= 0 
y0_18 + 1 y0_26 + 1 d0_18 <= 2 
-1 d0_18 + 1 y0_30 + 1 t0_18 >= 0 
d0_18 -1 y0_30 + 1 t0_18 >= 0 
d0_18 + 1 y0_30 -1 t0_18 >= 0 
d0_18 + 1 y0_30 + 1 t0_18 <= 2 
y0_23 -1 y0_19 + 1 d0_19 >= 0 
y0_19 -1 y0_23 + 1 d0_19 >= 0 
y0_23 + 1 y0_19 -1 d0_19 >= 0 
y0_19 + 1 y0_23 + 1 d0_19 <= 2 
-1 d0_19 + 1 y0_31 + 1 t0_19 >= 0 
d0_19 -1 y0_31 + 1 t0_19 >= 0 
d0_19 + 1 y0_31 -1 t0_19 >= 0 
d0_19 + 1 y0_31 + 1 t0_19 <= 2 
y0_20 -1 y0_16 + 1 d0_20 >= 0 
y0_16 -1 y0_20 + 1 d0_20 >= 0 
y0_20 + 1 y0_16 -1 d0_20 >= 0 
y0_16 + 1 y0_20 + 1 d0_20 <= 2 
-1 d0_20 + 1 y0_28 + 1 t0_20 >= 0 
d0_20 -1 y0_28 + 1 t0_20 >= 0 
d0_20 + 1 y0_28 -1 t0_20 >= 0 
d0_20 + 1 y0_28 + 1 t0_20 <= 2 
y0_21 -1 y0_17 + 1 d0_21 >= 0 
y0_17 -1 y0_21 + 1 d0_21 >= 0 
y0_21 + 1 y0_17 -1 d0_21 >= 0 
y0_17 + 1 y0_21 + 1 d0_21 <= 2 
-1 d0_21 + 1 y0_25 + 1 t0_21 >= 0 
d0_21 -1 y0_25 + 1 t0_21 >= 0 
d0_21 + 1 y0_25 -1 t0_21 >= 0 
d0_21 + 1 y0_25 + 1 t0_21 <= 2 
y0_26 -1 y0_22 + 1 d0_22 >= 0 
y0_22 -1 y0_26 + 1 d0_22 >= 0 
y0_26 + 1 y0_22 -1 d0_22 >= 0 
y0_22 + 1 y0_26 + 1 d0_22 <= 2 
-1 d0_22 + 1 y0_30 + 1 t0_22 >= 0 
d0_22 -1 y0_30 + 1 t0_22 >= 0 
d0_22 + 1 y0_30 -1 t0_22 >= 0 
d0_22 + 1 y0_30 + 1 t0_22 <= 2 
y0_27 -1 y0_19 + 1 d0_23 >= 0 
y0_19 -1 y0_27 + 1 d0_23 >= 0 
y0_27 + 1 y0_19 -1 d0_23 >= 0 
y0_19 + 1 y0_27 + 1 d0_23 <= 2 
-1 d0_23 + 1 y0_31 + 1 t0_23 >= 0 
d0_23 -1 y0_31 + 1 t0_23 >= 0 
d0_23 + 1 y0_31 -1 t0_23 >= 0 
d0_23 + 1 y0_31 + 1 t0_23 <= 2 
y0_24 -1 y0_16 + 1 d0_24 >= 0 
y0_16 -1 y0_24 + 1 d0_24 >= 0 
y0_24 + 1 y0_16 -1 d0_24 >= 0 
y0_16 + 1 y0_24 + 1 d0_24 <= 2 
-1 d0_24 + 1 y0_28 + 1 t0_24 >= 0 
d0_24 -1 y0_28 + 1 t0_24 >= 0 
d0_24 + 1 y0_28 -1 t0_24 >= 0 
d0_24 + 1 y0_28 + 1 t0_24 <= 2 
y0_21 -1 y0_17 + 1 d0_25 >= 0 
y0_17 -1 y0_21 + 1 d0_25 >= 0 
y0_21 + 1 y0_17 -1 d0_25 >= 0 
y0_17 + 1 y0_21 + 1 d0_25 <= 2 
-1 d0_25 + 1 y0_29 + 1 t0_25 >= 0 
d0_25 -1 y0_29 + 1 t0_25 >= 0 
d0_25 + 1 y0_29 -1 t0_25 >= 0 
d0_25 + 1 y0_29 + 1 t0_25 <= 2 
y0_22 -1 y0_18 + 1 d0_26 >= 0 
y0_18 -1 y0_22 + 1 d0_26 >= 0 
y0_22 + 1 y0_18 -1 d0_26 >= 0 
y0_18 + 1 y0_22 + 1 d0_26 <= 2 
-1 d0_26 + 1 y0_26 + 1 t0_26 >= 0 
d0_26 -1 y0_26 + 1 t0_26 >= 0 
d0_26 + 1 y0_26 -1 t0_26 >= 0 
d0_26 + 1 y0_26 + 1 t0_26 <= 2 
y0_27 -1 y0_23 + 1 d0_27 >= 0 
y0_23 -1 y0_27 + 1 d0_27 >= 0 
y0_27 + 1 y0_23 -1 d0_27 >= 0 
y0_23 + 1 y0_27 + 1 d0_27 <= 2 
-1 d0_27 + 1 y0_31 + 1 t0_27 >= 0 
d0_27 -1 y0_31 + 1 t0_27 >= 0 
d0_27 + 1 y0_31 -1 t0_27 >= 0 
d0_27 + 1 y0_31 + 1 t0_27 <= 2 
y0_24 -1 y0_20 + 1 d0_28 >= 0 
y0_20 -1 y0_24 + 1 d0_28 >= 0 
y0_24 + 1 y0_20 -1 d0_28 >= 0 
y0_20 + 1 y0_24 + 1 d0_28 <= 2 
-1 d0_28 + 1 y0_28 + 1 t0_28 >= 0 
d0_28 -1 y0_28 + 1 t0_28 >= 0 
d0_28 + 1 y0_28 -1 t0_28 >= 0 
d0_28 + 1 y0_28 + 1 t0_28 <= 2 
y0_25 -1 y0_17 + 1 d0_29 >= 0 
y0_17 -1 y0_25 + 1 d0_29 >= 0 
y0_25 + 1 y0_17 -1 d0_29 >= 0 
y0_17 + 1 y0_25 + 1 d0_29 <= 2 
-1 d0_29 + 1 y0_29 + 1 t0_29 >= 0 
d0_29 -1 y0_29 + 1 t0_29 >= 0 
d0_29 + 1 y0_29 -1 t0_29 >= 0 
d0_29 + 1 y0_29 + 1 t0_29 <= 2 
y0_22 -1 y0_18 + 1 d0_30 >= 0 
y0_18 -1 y0_22 + 1 d0_30 >= 0 
y0_22 + 1 y0_18 -1 d0_30 >= 0 
y0_18 + 1 y0_22 + 1 d0_30 <= 2 
-1 d0_30 + 1 y0_30 + 1 t0_30 >= 0 
d0_30 -1 y0_30 + 1 t0_30 >= 0 
d0_30 + 1 y0_30 -1 t0_30 >= 0 
d0_30 + 1 y0_30 + 1 t0_30 <= 2 
y0_23 -1 y0_19 + 1 d0_31 >= 0 
y0_19 -1 y0_23 + 1 d0_31 >= 0 
y0_23 + 1 y0_19 -1 d0_31 >= 0 
y0_19 + 1 y0_23 + 1 d0_31 <= 2 
-1 d0_31 + 1 y0_27 + 1 t0_31 >= 0 
d0_31 -1 y0_27 + 1 t0_31 >= 0 
d0_31 + 1 y0_27 -1 t0_31 >= 0 
d0_31 + 1 y0_27 + 1 t0_31 <= 2 
y0_36 -1 y0_32 + 1 d0_32 >= 0 
y0_32 -1 y0_36 + 1 d0_32 >= 0 
y0_36 + 1 y0_32 -1 d0_32 >= 0 
y0_32 + 1 y0_36 + 1 d0_32 <= 2 
-1 d0_32 + 1 y0_40 + 1 t0_32 >= 0 
d0_32 -1 y0_40 + 1 t0_32 >= 0 
d0_32 + 1 y0_40 -1 t0_32 >= 0 
d0_32 + 1 y0_40 + 1 t0_32 <= 2 
y0_41 -1 y0_37 + 1 d0_33 >= 0 
y0_37 -1 y0_41 + 1 d0_33 >= 0 
y0_41 + 1 y0_37 -1 d0_33 >= 0 
y0_37 + 1 y0_41 + 1 d0_33 <= 2 
-1 d0_33 + 1 y0_45 + 1 t0_33 >= 0 
d0_33 -1 y0_45 + 1 t0_33 >= 0 
d0_33 + 1 y0_45 -1 t0_33 >= 0 
d0_33 + 1 y0_45 + 1 t0_33 <= 2 
y0_42 -1 y0_34 + 1 d0_34 >= 0 
y0_34 -1 y0_42 + 1 d0_34 >= 0 
y0_42 + 1 y0_34 -1 d0_34 >= 0 
y0_34 + 1 y0_42 + 1 d0_34 <= 2 
-1 d0_34 + 1 y0_46 + 1 t0_34 >= 0 
d0_34 -1 y0_46 + 1 t0_34 >= 0 
d0_34 + 1 y0_46 -1 t0_34 >= 0 
d0_34 + 1 y0_46 + 1 t0_34 <= 2 
y0_39 -1 y0_35 + 1 d0_35 >= 0 
y0_35 -1 y0_39 + 1 d0_35 >= 0 
y0_39 + 1 y0_35 -1 d0_35 >= 0 
y0_35 + 1 y0_39 + 1 d0_35 <= 2 
-1 d0_35 + 1 y0_47 + 1 t0_35 >= 0 
d0_35 -1 y0_47 + 1 t0_35 >= 0 
d0_35 + 1 y0_47 -1 t0_35 >= 0 
d0_35 + 1 y0_47 + 1 t0_35 <= 2 
y0_36 -1 y0_32 + 1 d0_36 >= 0 
y0_32 -1 y0_36 + 1 d0_36 >= 0 
y0_36 + 1 y0_32 -1 d0_36 >= 0 
y0_32 + 1 y0_36 + 1 d0_36 <= 2 
-1 d0_36 + 1 y0_44 + 1 t0_36 >= 0 
d0_36 -1 y0_44 + 1 t0_36 >= 0 
d0_36 + 1 y0_44 -1 t0_36 >= 0 
d0_36 + 1 y0_44 + 1 t0_36 <= 2 
y0_37 -1 y0_33 + 1 d0_37 >= 0 
y0_33 -1 y0_37 + 1 d0_37 >= 0 
y0_37 + 1 y0_33 -1 d0_37 >= 0 
y0_33 + 1 y0_37 + 1 d0_37 <= 2 
-1 d0_37 + 1 y0_41 + 1 t0_37 >= 0 
d0_37 -1 y0_41 + 1 t0_37 >= 0 
d0_37 + 1 y0_41 -1 t0_37 >= 0 
d0_37 + 1 y0_41 + 1 t0_37 <= 2 
y0_42 -1 y0_38 + 1 d0_38 >= 0 
y0_38 -1 y0_42 + 1 d0_38 >= 0 
y0_42 + 1 y0_38 -1 d0_38 >= 0 
y0_38 + 1 y0_42 + 1 d0_38 <= 2 
-1 d0_38 + 1 y0_46 + 1 t0_38 >= 0 
d0_38 -1 y0_46 + 1 t0_38 >= 0 
d0_38 + 1 y0_46 -1 t0_38 >= 0 
d0_38 + 1 y0_46 + 1 t0_38 <= 2 
y0_43 -1 y0_35 + 1 d0_39 >= 0 
y0_35 -1 y0_43 + 1 d0_39 >= 0 
y0_43 + 1 y0_35 -1 d0_39 >= 0 
y0_35 + 1 y0_43 + 1 d0_39 <= 2 
-1 d0_39 + 1 y0_47 + 1 t0_39 >= 0 
d0_39 -1 y0_47 + 1 t0_39 >= 0 
d0_39 + 1 y0_47 -1 t0_39 >= 0 
d0_39 + 1 y0_47 + 1 t0_39 <= 2 
y0_40 -1 y0_32 + 1 d0_40 >= 0 
y0_32 -1 y0_40 + 1 d0_40 >= 0 
y0_40 + 1 y0_32 -1 d0_40 >= 0 
y0_32 + 1 y0_40 + 1 d0_40 <= 2 
-1 d0_40 + 1 y0_44 + 1 t0_40 >= 0 
d0_40 -1 y0_44 + 1 t0_40 >= 0 
d0_40 + 1 y0_44 -1 t0_40 >= 0 
d0_40 + 1 y0_44 + 1 t0_40 <= 2 
y0_37 -1 y0_33 + 1 d0_41 >= 0 
y0_33 -1 y0_37 + 1 d0_41 >= 0 
y0_37 + 1 y0_33 -1 d0_41 >= 0 
y0_33 + 1 y0_37 + 1 d0_41 <= 2 
-1 d0_41 + 1 y0_45 + 1 t0_41 >= 0 
d0_41 -1 y0_45 + 1 t0_41 >= 0 
d0_41 + 1 y0_45 -1 t0_41 >= 0 
d0_41 + 1 y0_45 + 1 t0_41 <= 2 
y0_38 -1 y0_34 + 1 d0_42 >= 0 
y0_34 -1 y0_38 + 1 d0_42 >= 0 
y0_38 + 1 y0_34 -1 d0_42 >= 0 
y0_34 + 1 y0_38 + 1 d0_42 <= 2 
-1 d0_42 + 1 y0_42 + 1 t0_42 >= 0 
d0_42 -1 y0_42 + 1 t0_42 >= 0 
d0_42 + 1 y0_42 -1 t0_42 >= 0 
d0_42 + 1 y0_42 + 1 t0_42 <= 2 
y0_43 -1 y0_39 + 1 d0_43 >= 0 
y0_39 -1 y0_43 + 1 d0_43 >= 0 
y0_43 + 1 y0_39 -1 d0_43 >= 0 
y0_39 + 1 y0_43 + 1 d0_43 <= 2 
-1 d0_43 + 1 y0_47 + 1 t0_43 >= 0 
d0_43 -1 y0_47 + 1 t0_43 >= 0 
d0_43 + 1 y0_47 -1 t0_43 >= 0 
d0_43 + 1 y0_47 + 1 t0_43 <= 2 
y0_40 -1 y0_36 + 1 d0_44 >= 0 
y0_36 -1 y0_40 + 1 d0_44 >= 0 
y0_40 + 1 y0_36 -1 d0_44 >= 0 
y0_36 + 1 y0_40 + 1 d0_44 <= 2 
-1 d0_44 + 1 y0_44 + 1 t0_44 >= 0 
d0_44 -1 y0_44 + 1 t0_44 >= 0 
d0_44 + 1 y0_44 -1 t0_44 >= 0 
d0_44 + 1 y0_44 + 1 t0_44 <= 2 
y0_41 -1 y0_33 + 1 d0_45 >= 0 
y0_33 -1 y0_41 + 1 d0_45 >= 0 
y0_41 + 1 y0_33 -1 d0_45 >= 0 
y0_33 + 1 y0_41 + 1 d0_45 <= 2 
-1 d0_45 + 1 y0_45 + 1 t0_45 >= 0 
d0_45 -1 y0_45 + 1 t0_45 >= 0 
d0_45 + 1 y0_45 -1 t0_45 >= 0 
d0_45 + 1 y0_45 + 1 t0_45 <= 2 
y0_38 -1 y0_34 + 1 d0_46 >= 0 
y0_34 -1 y0_38 + 1 d0_46 >= 0 
y0_38 + 1 y0_34 -1 d0_46 >= 0 
y0_34 + 1 y0_38 + 1 d0_46 <= 2 
-1 d0_46 + 1 y0_46 + 1 t0_46 >= 0 
d0_46 -1 y0_46 + 1 t0_46 >= 0 
d0_46 + 1 y0_46 -1 t0_46 >= 0 
d0_46 + 1 y0_46 + 1 t0_46 <= 2 
y0_39 -1 y0_35 + 1 d0_47 >= 0 
y0_35 -1 y0_39 + 1 d0_47 >= 0 
y0_39 + 1 y0_35 -1 d0_47 >= 0 
y0_35 + 1 y0_39 + 1 d0_47 <= 2 
-1 d0_47 + 1 y0_43 + 1 t0_47 >= 0 
d0_47 -1 y0_43 + 1 t0_47 >= 0 
d0_47 + 1 y0_43 -1 t0_47 >= 0 
d0_47 + 1 y0_43 + 1 t0_47 <= 2 
y0_56 -1 y0_52 + 1 d0_48 >= 0 
y0_52 -1 y0_56 + 1 d0_48 >= 0 
y0_56 + 1 y0_52 -1 d0_48 >= 0 
y0_52 + 1 y0_56 + 1 d0_48 <= 2 
-1 d0_48 + 1 y0_60 + 1 t0_48 >= 0 
d0_48 -1 y0_60 + 1 t0_48 >= 0 
d0_48 + 1 y0_60 -1 t0_48 >= 0 
d0_48 + 1 y0_60 + 1 t0_48 <= 2 
y0_57 -1 y0_49 + 1 d0_49 >= 0 
y0_49 -1 y0_57 + 1 d0_49 >= 0 
y0_57 + 1 y0_49 -1 d0_49 >= 0 
y0_49 + 1 y0_57 + 1 d0_49 <= 2 
-1 d0_49 + 1 y0_61 + 1 t0_49 >= 0 
d0_49 -1 y0_61 + 1 t0_49 >= 0 
d0_49 + 1 y0_61 -1 t0_49 >= 0 
d0_49 + 1 y0_61 + 1 t0_49 <= 2 
y0_54 -1 y0_50 + 1 d0_50 >= 0 
y0_50 -1 y0_54 + 1 d0_50 >= 0 
y0_54 + 1 y0_50 -1 d0_50 >= 0 
y0_50 + 1 y0_54 + 1 d0_50 <= 2 
-1 d0_50 + 1 y0_62 + 1 t0_50 >= 0 
d0_50 -1 y0_62 + 1 t0_50 >= 0 
d0_50 + 1 y0_62 -1 t0_50 >= 0 
d0_50 + 1 y0_62 + 1 t0_50 <= 2 
y0_55 -1 y0_51 + 1 d0_51 >= 0 
y0_51 -1 y0_55 + 1 d0_51 >= 0 
y0_55 + 1 y0_51 -1 d0_51 >= 0 
y0_51 + 1 y0_55 + 1 d0_51 <= 2 
-1 d0_51 + 1 y0_59 + 1 t0_51 >= 0 
d0_51 -1 y0_59 + 1 t0_51 >= 0 
d0_51 + 1 y0_59 -1 t0_51 >= 0 
d0_51 + 1 y0_59 + 1 t0_51 <= 2 
y0_52 -1 y0_48 + 1 d0_52 >= 0 
y0_48 -1 y0_52 + 1 d0_52 >= 0 
y0_52 + 1 y0_48 -1 d0_52 >= 0 
y0_48 + 1 y0_52 + 1 d0_52 <= 2 
-1 d0_52 + 1 y0_56 + 1 t0_52 >= 0 
d0_52 -1 y0_56 + 1 t0_52 >= 0 
d0_52 + 1 y0_56 -1 t0_52 >= 0 
d0_52 + 1 y0_56 + 1 t0_52 <= 2 
y0_57 -1 y0_53 + 1 d0_53 >= 0 
y0_53 -1 y0_57 + 1 d0_53 >= 0 
y0_57 + 1 y0_53 -1 d0_53 >= 0 
y0_53 + 1 y0_57 + 1 d0_53 <= 2 
-1 d0_53 + 1 y0_61 + 1 t0_53 >= 0 
d0_53 -1 y0_61 + 1 t0_53 >= 0 
d0_53 + 1 y0_61 -1 t0_53 >= 0 
d0_53 + 1 y0_61 + 1 t0_53 <= 2 
y0_58 -1 y0_50 + 1 d0_54 >= 0 
y0_50 -1 y0_58 + 1 d0_54 >= 0 
y0_58 + 1 y0_50 -1 d0_54 >= 0 
y0_50 + 1 y0_58 + 1 d0_54 <= 2 
-1 d0_54 + 1 y0_62 + 1 t0_54 >= 0 
d0_54 -1 y0_62 + 1 t0_54 >= 0 
d0_54 + 1 y0_62 -1 t0_54 >= 0 
d0_54 + 1 y0_62 + 1 t0_54 <= 2 
y0_55 -1 y0_51 + 1 d0_55 >= 0 
y0_51 -1 y0_55 + 1 d0_55 >= 0 
y0_55 + 1 y0_51 -1 d0_55 >= 0 
y0_51 + 1 y0_55 + 1 d0_55 <= 2 
-1 d0_55 + 1 y0_63 + 1 t0_55 >= 0 
d0_55 -1 y0_63 + 1 t0_55 >= 0 
d0_55 + 1 y0_63 -1 t0_55 >= 0 
d0_55 + 1 y0_63 + 1 t0_55 <= 2 
y0_52 -1 y0_48 + 1 d0_56 >= 0 
y0_48 -1 y0_52 + 1 d0_56 >= 0 
y0_52 + 1 y0_48 -1 d0_56 >= 0 
y0_48 + 1 y0_52 + 1 d0_56 <= 2 
-1 d0_56 + 1 y0_60 + 1 t0_56 >= 0 
d0_56 -1 y0_60 + 1 t0_56 >= 0 
d0_56 + 1 y0_60 -1 t0_56 >= 0 
d0_56 + 1 y0_60 + 1 t0_56 <= 2 
y0_53 -1 y0_49 + 1 d0_57 >= 0 
y0_49 -1 y0_53 + 1 d0_57 >= 0 
y0_53 + 1 y0_49 -1 d0_57 >= 0 
y0_49 + 1 y0_53 + 1 d0_57 <= 2 
-1 d0_57 + 1 y0_57 + 1 t0_57 >= 0 
d0_57 -1 y0_57 + 1 t0_57 >= 0 
d0_57 + 1 y0_57 -1 t0_57 >= 0 
d0_57 + 1 y0_57 + 1 t0_57 <= 2 
y0_58 -1 y0_54 + 1 d0_58 >= 0 
y0_54 -1 y0_58 + 1 d0_58 >= 0 
y0_58 + 1 y0_54 -1 d0_58 >= 0 
y0_54 + 1 y0_58 + 1 d0_58 <= 2 
-1 d0_58 + 1 y0_62 + 1 t0_58 >= 0 
d0_58 -1 y0_62 + 1 t0_58 >= 0 
d0_58 + 1 y0_62 -1 t0_58 >= 0 
d0_58 + 1 y0_62 + 1 t0_58 <= 2 
y0_59 -1 y0_51 + 1 d0_59 >= 0 
y0_51 -1 y0_59 + 1 d0_59 >= 0 
y0_59 + 1 y0_51 -1 d0_59 >= 0 
y0_51 + 1 y0_59 + 1 d0_59 <= 2 
-1 d0_59 + 1 y0_63 + 1 t0_59 >= 0 
d0_59 -1 y0_63 + 1 t0_59 >= 0 
d0_59 + 1 y0_63 -1 t0_59 >= 0 
d0_59 + 1 y0_63 + 1 t0_59 <= 2 
y0_56 -1 y0_48 + 1 d0_60 >= 0 
y0_48 -1 y0_56 + 1 d0_60 >= 0 
y0_56 + 1 y0_48 -1 d0_60 >= 0 
y0_48 + 1 y0_56 + 1 d0_60 <= 2 
-1 d0_60 + 1 y0_60 + 1 t0_60 >= 0 
d0_60 -1 y0_60 + 1 t0_60 >= 0 
d0_60 + 1 y0_60 -1 t0_60 >= 0 
d0_60 + 1 y0_60 + 1 t0_60 <= 2 
y0_53 -1 y0_49 + 1 d0_61 >= 0 
y0_49 -1 y0_53 + 1 d0_61 >= 0 
y0_53 + 1 y0_49 -1 d0_61 >= 0 
y0_49 + 1 y0_53 + 1 d0_61 <= 2 
-1 d0_61 + 1 y0_61 + 1 t0_61 >= 0 
d0_61 -1 y0_61 + 1 t0_61 >= 0 
d0_61 + 1 y0_61 -1 t0_61 >= 0 
d0_61 + 1 y0_61 + 1 t0_61 <= 2 
y0_54 -1 y0_50 + 1 d0_62 >= 0 
y0_50 -1 y0_54 + 1 d0_62 >= 0 
y0_54 + 1 y0_50 -1 d0_62 >= 0 
y0_50 + 1 y0_54 + 1 d0_62 <= 2 
-1 d0_62 + 1 y0_58 + 1 t0_62 >= 0 
d0_62 -1 y0_58 + 1 t0_62 >= 0 
d0_62 + 1 y0_58 -1 t0_62 >= 0 
d0_62 + 1 y0_58 + 1 t0_62 <= 2 
y0_59 -1 y0_55 + 1 d0_63 >= 0 
y0_55 -1 y0_59 + 1 d0_63 >= 0 
y0_59 + 1 y0_55 -1 d0_63 >= 0 
y0_55 + 1 y0_59 + 1 d0_63 <= 2 
-1 d0_63 + 1 y0_63 + 1 t0_63 >= 0 
d0_63 -1 y0_63 + 1 t0_63 >= 0 
d0_63 + 1 y0_63 -1 t0_63 >= 0 
d0_63 + 1 y0_63 + 1 t0_63 <= 2 
x1_0 - t0_0 = 0 
x1_1 - t0_1 = 0 
x1_2 - t0_2 = 0 
x1_3 - t0_3 = 0 
x1_4 - t0_20 = 0 
x1_5 - t0_21 = 0 
x1_6 - t0_22 = 0 
x1_7 - t0_23 = 0 
x1_8 - t0_40 = 0 
x1_9 - t0_41 = 0 
x1_10 - t0_42 = 0 
x1_11 - t0_43 = 0 
x1_12 - t0_60 = 0 
x1_13 - t0_61 = 0 
x1_14 - t0_62 = 0 
x1_15 - t0_63 = 0 
x1_16 - t0_16 = 0 
x1_17 - t0_17 = 0 
x1_18 - t0_18 = 0 
x1_19 - t0_19 = 0 
x1_20 - t0_36 = 0 
x1_21 - t0_37 = 0 
x1_22 - t0_38 = 0 
x1_23 - t0_39 = 0 
x1_24 - t0_56 = 0 
x1_25 - t0_57 = 0 
x1_26 - t0_58 = 0 
x1_27 - t0_59 = 0 
x1_28 - t0_12 = 0 
x1_29 - t0_13 = 0 
x1_30 - t0_14 = 0 
x1_31 - t0_15 = 0 
x1_32 - t0_32 = 0 
x1_33 - t0_33 = 0 
x1_34 - t0_34 = 0 
x1_35 - t0_35 = 0 
x1_36 - t0_52 = 0 
x1_37 - t0_53 = 0 
x1_38 - t0_54 = 0 
x1_39 - t0_55 = 0 
x1_40 - t0_8 = 0 
x1_41 - t0_9 = 0 
x1_42 - t0_10 = 0 
x1_43 - t0_11 = 0 
x1_44 - t0_28 = 0 
x1_45 - t0_29 = 0 
x1_46 - t0_30 = 0 
x1_47 - t0_31 = 0 
x1_48 - t0_48 = 0 
x1_49 - t0_49 = 0 
x1_50 - t0_50 = 0 
x1_51 - t0_51 = 0 
x1_52 - t0_4 = 0 
x1_53 - t0_5 = 0 
x1_54 - t0_6 = 0 
x1_55 - t0_7 = 0 
x1_56 - t0_24 = 0 
x1_57 - t0_25 = 0 
x1_58 - t0_26 = 0 
x1_59 - t0_27 = 0 
x1_60 - t0_44 = 0 
x1_61 - t0_45 = 0 
x1_62 - t0_46 = 0 
x1_63 - t0_47 = 0 
x1_0 + x1_1 + x1_2 + x1_3 - A1_0 >= 0 
A1_0 - x1_0 >= 0 
A1_0 - x1_1 >= 0 
A1_0 - x1_2 >= 0 
A1_0 - x1_3 >= 0 
x1_4 + x1_5 + x1_6 + x1_7 - A1_1 >= 0 
A1_1 - x1_4 >= 0 
A1_1 - x1_5 >= 0 
A1_1 - x1_6 >= 0 
A1_1 - x1_7 >= 0 
x1_8 + x1_9 + x1_10 + x1_11 - A1_2 >= 0 
A1_2 - x1_8 >= 0 
A1_2 - x1_9 >= 0 
A1_2 - x1_10 >= 0 
A1_2 - x1_11 >= 0 
x1_12 + x1_13 + x1_14 + x1_15 - A1_3 >= 0 
A1_3 - x1_12 >= 0 
A1_3 - x1_13 >= 0 
A1_3 - x1_14 >= 0 
A1_3 - x1_15 >= 0 
x1_16 + x1_17 + x1_18 + x1_19 - A1_4 >= 0 
A1_4 - x1_16 >= 0 
A1_4 - x1_17 >= 0 
A1_4 - x1_18 >= 0 
A1_4 - x1_19 >= 0 
x1_20 + x1_21 + x1_22 + x1_23 - A1_5 >= 0 
A1_5 - x1_20 >= 0 
A1_5 - x1_21 >= 0 
A1_5 - x1_22 >= 0 
A1_5 - x1_23 >= 0 
x1_24 + x1_25 + x1_26 + x1_27 - A1_6 >= 0 
A1_6 - x1_24 >= 0 
A1_6 - x1_25 >= 0 
A1_6 - x1_26 >= 0 
A1_6 - x1_27 >= 0 
x1_28 + x1_29 + x1_30 + x1_31 - A1_7 >= 0 
A1_7 - x1_28 >= 0 
A1_7 - x1_29 >= 0 
A1_7 - x1_30 >= 0 
A1_7 - x1_31 >= 0 
x1_32 + x1_33 + x1_34 + x1_35 - A1_8 >= 0 
A1_8 - x1_32 >= 0 
A1_8 - x1_33 >= 0 
A1_8 - x1_34 >= 0 
A1_8 - x1_35 >= 0 
x1_36 + x1_37 + x1_38 + x1_39 - A1_9 >= 0 
A1_9 - x1_36 >= 0 
A1_9 - x1_37 >= 0 
A1_9 - x1_38 >= 0 
A1_9 - x1_39 >= 0 
x1_40 + x1_41 + x1_42 + x1_43 - A1_10 >= 0 
A1_10 - x1_40 >= 0 
A1_10 - x1_41 >= 0 
A1_10 - x1_42 >= 0 
A1_10 - x1_43 >= 0 
x1_44 + x1_45 + x1_46 + x1_47 - A1_11 >= 0 
A1_11 - x1_44 >= 0 
A1_11 - x1_45 >= 0 
A1_11 - x1_46 >= 0 
A1_11 - x1_47 >= 0 
x1_48 + x1_49 + x1_50 + x1_51 - A1_12 >= 0 
A1_12 - x1_48 >= 0 
A1_12 - x1_49 >= 0 
A1_12 - x1_50 >= 0 
A1_12 - x1_51 >= 0 
x1_52 + x1_53 + x1_54 + x1_55 - A1_13 >= 0 
A1_13 - x1_52 >= 0 
A1_13 - x1_53 >= 0 
A1_13 - x1_54 >= 0 
A1_13 - x1_55 >= 0 
x1_56 + x1_57 + x1_58 + x1_59 - A1_14 >= 0 
A1_14 - x1_56 >= 0 
A1_14 - x1_57 >= 0 
A1_14 - x1_58 >= 0 
A1_14 - x1_59 >= 0 
x1_60 + x1_61 + x1_62 + x1_63 - A1_15 >= 0 
A1_15 - x1_60 >= 0 
A1_15 - x1_61 >= 0 
A1_15 - x1_62 >= 0 
A1_15 - x1_63 >= 0 
y1_8 -1 y1_4 + 1 d1_0 >= 0 
y1_4 -1 y1_8 + 1 d1_0 >= 0 
y1_8 + 1 y1_4 -1 d1_0 >= 0 
y1_4 + 1 y1_8 + 1 d1_0 <= 2 
-1 d1_0 + 1 y1_12 + 1 t1_0 >= 0 
d1_0 -1 y1_12 + 1 t1_0 >= 0 
d1_0 + 1 y1_12 -1 t1_0 >= 0 
d1_0 + 1 y1_12 + 1 t1_0 <= 2 
y1_9 -1 y1_1 + 1 d1_1 >= 0 
y1_1 -1 y1_9 + 1 d1_1 >= 0 
y1_9 + 1 y1_1 -1 d1_1 >= 0 
y1_1 + 1 y1_9 + 1 d1_1 <= 2 
-1 d1_1 + 1 y1_13 + 1 t1_1 >= 0 
d1_1 -1 y1_13 + 1 t1_1 >= 0 
d1_1 + 1 y1_13 -1 t1_1 >= 0 
d1_1 + 1 y1_13 + 1 t1_1 <= 2 
y1_6 -1 y1_2 + 1 d1_2 >= 0 
y1_2 -1 y1_6 + 1 d1_2 >= 0 
y1_6 + 1 y1_2 -1 d1_2 >= 0 
y1_2 + 1 y1_6 + 1 d1_2 <= 2 
-1 d1_2 + 1 y1_14 + 1 t1_2 >= 0 
d1_2 -1 y1_14 + 1 t1_2 >= 0 
d1_2 + 1 y1_14 -1 t1_2 >= 0 
d1_2 + 1 y1_14 + 1 t1_2 <= 2 
y1_7 -1 y1_3 + 1 d1_3 >= 0 
y1_3 -1 y1_7 + 1 d1_3 >= 0 
y1_7 + 1 y1_3 -1 d1_3 >= 0 
y1_3 + 1 y1_7 + 1 d1_3 <= 2 
-1 d1_3 + 1 y1_11 + 1 t1_3 >= 0 
d1_3 -1 y1_11 + 1 t1_3 >= 0 
d1_3 + 1 y1_11 -1 t1_3 >= 0 
d1_3 + 1 y1_11 + 1 t1_3 <= 2 
y1_4 -1 y1_0 + 1 d1_4 >= 0 
y1_0 -1 y1_4 + 1 d1_4 >= 0 
y1_4 + 1 y1_0 -1 d1_4 >= 0 
y1_0 + 1 y1_4 + 1 d1_4 <= 2 
-1 d1_4 + 1 y1_8 + 1 t1_4 >= 0 
d1_4 -1 y1_8 + 1 t1_4 >= 0 
d1_4 + 1 y1_8 -1 t1_4 >= 0 
d1_4 + 1 y1_8 + 1 t1_4 <= 2 
y1_9 -1 y1_5 + 1 d1_5 >= 0 
y1_5 -1 y1_9 + 1 d1_5 >= 0 
y1_9 + 1 y1_5 -1 d1_5 >= 0 
y1_5 + 1 y1_9 + 1 d1_5 <= 2 
-1 d1_5 + 1 y1_13 + 1 t1_5 >= 0 
d1_5 -1 y1_13 + 1 t1_5 >= 0 
d1_5 + 1 y1_13 -1 t1_5 >= 0 
d1_5 + 1 y1_13 + 1 t1_5 <= 2 
y1_10 -1 y1_2 + 1 d1_6 >= 0 
y1_2 -1 y1_10 + 1 d1_6 >= 0 
y1_10 + 1 y1_2 -1 d1_6 >= 0 
y1_2 + 1 y1_10 + 1 d1_6 <= 2 
-1 d1_6 + 1 y1_14 + 1 t1_6 >= 0 
d1_6 -1 y1_14 + 1 t1_6 >= 0 
d1_6 + 1 y1_14 -1 t1_6 >= 0 
d1_6 + 1 y1_14 + 1 t1_6 <= 2 
y1_7 -1 y1_3 + 1 d1_7 >= 0 
y1_3 -1 y1_7 + 1 d1_7 >= 0 
y1_7 + 1 y1_3 -1 d1_7 >= 0 
y1_3 + 1 y1_7 + 1 d1_7 <= 2 
-1 d1_7 + 1 y1_15 + 1 t1_7 >= 0 
d1_7 -1 y1_15 + 1 t1_7 >= 0 
d1_7 + 1 y1_15 -1 t1_7 >= 0 
d1_7 + 1 y1_15 + 1 t1_7 <= 2 
y1_4 -1 y1_0 + 1 d1_8 >= 0 
y1_0 -1 y1_4 + 1 d1_8 >= 0 
y1_4 + 1 y1_0 -1 d1_8 >= 0 
y1_0 + 1 y1_4 + 1 d1_8 <= 2 
-1 d1_8 + 1 y1_12 + 1 t1_8 >= 0 
d1_8 -1 y1_12 + 1 t1_8 >= 0 
d1_8 + 1 y1_12 -1 t1_8 >= 0 
d1_8 + 1 y1_12 + 1 t1_8 <= 2 
y1_5 -1 y1_1 + 1 d1_9 >= 0 
y1_1 -1 y1_5 + 1 d1_9 >= 0 
y1_5 + 1 y1_1 -1 d1_9 >= 0 
y1_1 + 1 y1_5 + 1 d1_9 <= 2 
-1 d1_9 + 1 y1_9 + 1 t1_9 >= 0 
d1_9 -1 y1_9 + 1 t1_9 >= 0 
d1_9 + 1 y1_9 -1 t1_9 >= 0 
d1_9 + 1 y1_9 + 1 t1_9 <= 2 
y1_10 -1 y1_6 + 1 d1_10 >= 0 
y1_6 -1 y1_10 + 1 d1_10 >= 0 
y1_10 + 1 y1_6 -1 d1_10 >= 0 
y1_6 + 1 y1_10 + 1 d1_10 <= 2 
-1 d1_10 + 1 y1_14 + 1 t1_10 >= 0 
d1_10 -1 y1_14 + 1 t1_10 >= 0 
d1_10 + 1 y1_14 -1 t1_10 >= 0 
d1_10 + 1 y1_14 + 1 t1_10 <= 2 
y1_11 -1 y1_3 + 1 d1_11 >= 0 
y1_3 -1 y1_11 + 1 d1_11 >= 0 
y1_11 + 1 y1_3 -1 d1_11 >= 0 
y1_3 + 1 y1_11 + 1 d1_11 <= 2 
-1 d1_11 + 1 y1_15 + 1 t1_11 >= 0 
d1_11 -1 y1_15 + 1 t1_11 >= 0 
d1_11 + 1 y1_15 -1 t1_11 >= 0 
d1_11 + 1 y1_15 + 1 t1_11 <= 2 
y1_8 -1 y1_0 + 1 d1_12 >= 0 
y1_0 -1 y1_8 + 1 d1_12 >= 0 
y1_8 + 1 y1_0 -1 d1_12 >= 0 
y1_0 + 1 y1_8 + 1 d1_12 <= 2 
-1 d1_12 + 1 y1_12 + 1 t1_12 >= 0 
d1_12 -1 y1_12 + 1 t1_12 >= 0 
d1_12 + 1 y1_12 -1 t1_12 >= 0 
d1_12 + 1 y1_12 + 1 t1_12 <= 2 
y1_5 -1 y1_1 + 1 d1_13 >= 0 
y1_1 -1 y1_5 + 1 d1_13 >= 0 
y1_5 + 1 y1_1 -1 d1_13 >= 0 
y1_1 + 1 y1_5 + 1 d1_13 <= 2 
-1 d1_13 + 1 y1_13 + 1 t1_13 >= 0 
d1_13 -1 y1_13 + 1 t1_13 >= 0 
d1_13 + 1 y1_13 -1 t1_13 >= 0 
d1_13 + 1 y1_13 + 1 t1_13 <= 2 
y1_6 -1 y1_2 + 1 d1_14 >= 0 
y1_2 -1 y1_6 + 1 d1_14 >= 0 
y1_6 + 1 y1_2 -1 d1_14 >= 0 
y1_2 + 1 y1_6 + 1 d1_14 <= 2 
-1 d1_14 + 1 y1_10 + 1 t1_14 >= 0 
d1_14 -1 y1_10 + 1 t1_14 >= 0 
d1_14 + 1 y1_10 -1 t1_14 >= 0 
d1_14 + 1 y1_10 + 1 t1_14 <= 2 
y1_11 -1 y1_7 + 1 d1_15 >= 0 
y1_7 -1 y1_11 + 1 d1_15 >= 0 
y1_11 + 1 y1_7 -1 d1_15 >= 0 
y1_7 + 1 y1_11 + 1 d1_15 <= 2 
-1 d1_15 + 1 y1_15 + 1 t1_15 >= 0 
d1_15 -1 y1_15 + 1 t1_15 >= 0 
d1_15 + 1 y1_15 -1 t1_15 >= 0 
d1_15 + 1 y1_15 + 1 t1_15 <= 2 
y1_20 -1 y1_16 + 1 d1_16 >= 0 
y1_16 -1 y1_20 + 1 d1_16 >= 0 
y1_20 + 1 y1_16 -1 d1_16 >= 0 
y1_16 + 1 y1_20 + 1 d1_16 <= 2 
-1 d1_16 + 1 y1_24 + 1 t1_16 >= 0 
d1_16 -1 y1_24 + 1 t1_16 >= 0 
d1_16 + 1 y1_24 -1 t1_16 >= 0 
d1_16 + 1 y1_24 + 1 t1_16 <= 2 
y1_25 -1 y1_21 + 1 d1_17 >= 0 
y1_21 -1 y1_25 + 1 d1_17 >= 0 
y1_25 + 1 y1_21 -1 d1_17 >= 0 
y1_21 + 1 y1_25 + 1 d1_17 <= 2 
-1 d1_17 + 1 y1_29 + 1 t1_17 >= 0 
d1_17 -1 y1_29 + 1 t1_17 >= 0 
d1_17 + 1 y1_29 -1 t1_17 >= 0 
d1_17 + 1 y1_29 + 1 t1_17 <= 2 
y1_26 -1 y1_18 + 1 d1_18 >= 0 
y1_18 -1 y1_26 + 1 d1_18 >= 0 
y1_26 + 1 y1_18 -1 d1_18 >= 0 
y1_18 + 1 y1_26 + 1 d1_18 <= 2 
-1 d1_18 + 1 y1_30 + 1 t1_18 >= 0 
d1_18 -1 y1_30 + 1 t1_18 >= 0 
d1_18 + 1 y1_30 -1 t1_18 >= 0 
d1_18 + 1 y1_30 + 1 t1_18 <= 2 
y1_23 -1 y1_19 + 1 d1_19 >= 0 
y1_19 -1 y1_23 + 1 d1_19 >= 0 
y1_23 + 1 y1_19 -1 d1_19 >= 0 
y1_19 + 1 y1_23 + 1 d1_19 <= 2 
-1 d1_19 + 1 y1_31 + 1 t1_19 >= 0 
d1_19 -1 y1_31 + 1 t1_19 >= 0 
d1_19 + 1 y1_31 -1 t1_19 >= 0 
d1_19 + 1 y1_31 + 1 t1_19 <= 2 
y1_20 -1 y1_16 + 1 d1_20 >= 0 
y1_16 -1 y1_20 + 1 d1_20 >= 0 
y1_20 + 1 y1_16 -1 d1_20 >= 0 
y1_16 + 1 y1_20 + 1 d1_20 <= 2 
-1 d1_20 + 1 y1_28 + 1 t1_20 >= 0 
d1_20 -1 y1_28 + 1 t1_20 >= 0 
d1_20 + 1 y1_28 -1 t1_20 >= 0 
d1_20 + 1 y1_28 + 1 t1_20 <= 2 
y1_21 -1 y1_17 + 1 d1_21 >= 0 
y1_17 -1 y1_21 + 1 d1_21 >= 0 
y1_21 + 1 y1_17 -1 d1_21 >= 0 
y1_17 + 1 y1_21 + 1 d1_21 <= 2 
-1 d1_21 + 1 y1_25 + 1 t1_21 >= 0 
d1_21 -1 y1_25 + 1 t1_21 >= 0 
d1_21 + 1 y1_25 -1 t1_21 >= 0 
d1_21 + 1 y1_25 + 1 t1_21 <= 2 
y1_26 -1 y1_22 + 1 d1_22 >= 0 
y1_22 -1 y1_26 + 1 d1_22 >= 0 
y1_26 + 1 y1_22 -1 d1_22 >= 0 
y1_22 + 1 y1_26 + 1 d1_22 <= 2 
-1 d1_22 + 1 y1_30 + 1 t1_22 >= 0 
d1_22 -1 y1_30 + 1 t1_22 >= 0 
d1_22 + 1 y1_30 -1 t1_22 >= 0 
d1_22 + 1 y1_30 + 1 t1_22 <= 2 
y1_27 -1 y1_19 + 1 d1_23 >= 0 
y1_19 -1 y1_27 + 1 d1_23 >= 0 
y1_27 + 1 y1_19 -1 d1_23 >= 0 
y1_19 + 1 y1_27 + 1 d1_23 <= 2 
-1 d1_23 + 1 y1_31 + 1 t1_23 >= 0 
d1_23 -1 y1_31 + 1 t1_23 >= 0 
d1_23 + 1 y1_31 -1 t1_23 >= 0 
d1_23 + 1 y1_31 + 1 t1_23 <= 2 
y1_24 -1 y1_16 + 1 d1_24 >= 0 
y1_16 -1 y1_24 + 1 d1_24 >= 0 
y1_24 + 1 y1_16 -1 d1_24 >= 0 
y1_16 + 1 y1_24 + 1 d1_24 <= 2 
-1 d1_24 + 1 y1_28 + 1 t1_24 >= 0 
d1_24 -1 y1_28 + 1 t1_24 >= 0 
d1_24 + 1 y1_28 -1 t1_24 >= 0 
d1_24 + 1 y1_28 + 1 t1_24 <= 2 
y1_21 -1 y1_17 + 1 d1_25 >= 0 
y1_17 -1 y1_21 + 1 d1_25 >= 0 
y1_21 + 1 y1_17 -1 d1_25 >= 0 
y1_17 + 1 y1_21 + 1 d1_25 <= 2 
-1 d1_25 + 1 y1_29 + 1 t1_25 >= 0 
d1_25 -1 y1_29 + 1 t1_25 >= 0 
d1_25 + 1 y1_29 -1 t1_25 >= 0 
d1_25 + 1 y1_29 + 1 t1_25 <= 2 
y1_22 -1 y1_18 + 1 d1_26 >= 0 
y1_18 -1 y1_22 + 1 d1_26 >= 0 
y1_22 + 1 y1_18 -1 d1_26 >= 0 
y1_18 + 1 y1_22 + 1 d1_26 <= 2 
-1 d1_26 + 1 y1_26 + 1 t1_26 >= 0 
d1_26 -1 y1_26 + 1 t1_26 >= 0 
d1_26 + 1 y1_26 -1 t1_26 >= 0 
d1_26 + 1 y1_26 + 1 t1_26 <= 2 
y1_27 -1 y1_23 + 1 d1_27 >= 0 
y1_23 -1 y1_27 + 1 d1_27 >= 0 
y1_27 + 1 y1_23 -1 d1_27 >= 0 
y1_23 + 1 y1_27 + 1 d1_27 <= 2 
-1 d1_27 + 1 y1_31 + 1 t1_27 >= 0 
d1_27 -1 y1_31 + 1 t1_27 >= 0 
d1_27 + 1 y1_31 -1 t1_27 >= 0 
d1_27 + 1 y1_31 + 1 t1_27 <= 2 
y1_24 -1 y1_20 + 1 d1_28 >= 0 
y1_20 -1 y1_24 + 1 d1_28 >= 0 
y1_24 + 1 y1_20 -1 d1_28 >= 0 
y1_20 + 1 y1_24 + 1 d1_28 <= 2 
-1 d1_28 + 1 y1_28 + 1 t1_28 >= 0 
d1_28 -1 y1_28 + 1 t1_28 >= 0 
d1_28 + 1 y1_28 -1 t1_28 >= 0 
d1_28 + 1 y1_28 + 1 t1_28 <= 2 
y1_25 -1 y1_17 + 1 d1_29 >= 0 
y1_17 -1 y1_25 + 1 d1_29 >= 0 
y1_25 + 1 y1_17 -1 d1_29 >= 0 
y1_17 + 1 y1_25 + 1 d1_29 <= 2 
-1 d1_29 + 1 y1_29 + 1 t1_29 >= 0 
d1_29 -1 y1_29 + 1 t1_29 >= 0 
d1_29 + 1 y1_29 -1 t1_29 >= 0 
d1_29 + 1 y1_29 + 1 t1_29 <= 2 
y1_22 -1 y1_18 + 1 d1_30 >= 0 
y1_18 -1 y1_22 + 1 d1_30 >= 0 
y1_22 + 1 y1_18 -1 d1_30 >= 0 
y1_18 + 1 y1_22 + 1 d1_30 <= 2 
-1 d1_30 + 1 y1_30 + 1 t1_30 >= 0 
d1_30 -1 y1_30 + 1 t1_30 >= 0 
d1_30 + 1 y1_30 -1 t1_30 >= 0 
d1_30 + 1 y1_30 + 1 t1_30 <= 2 
y1_23 -1 y1_19 + 1 d1_31 >= 0 
y1_19 -1 y1_23 + 1 d1_31 >= 0 
y1_23 + 1 y1_19 -1 d1_31 >= 0 
y1_19 + 1 y1_23 + 1 d1_31 <= 2 
-1 d1_31 + 1 y1_27 + 1 t1_31 >= 0 
d1_31 -1 y1_27 + 1 t1_31 >= 0 
d1_31 + 1 y1_27 -1 t1_31 >= 0 
d1_31 + 1 y1_27 + 1 t1_31 <= 2 
y1_36 -1 y1_32 + 1 d1_32 >= 0 
y1_32 -1 y1_36 + 1 d1_32 >= 0 
y1_36 + 1 y1_32 -1 d1_32 >= 0 
y1_32 + 1 y1_36 + 1 d1_32 <= 2 
-1 d1_32 + 1 y1_40 + 1 t1_32 >= 0 
d1_32 -1 y1_40 + 1 t1_32 >= 0 
d1_32 + 1 y1_40 -1 t1_32 >= 0 
d1_32 + 1 y1_40 + 1 t1_32 <= 2 
y1_41 -1 y1_37 + 1 d1_33 >= 0 
y1_37 -1 y1_41 + 1 d1_33 >= 0 
y1_41 + 1 y1_37 -1 d1_33 >= 0 
y1_37 + 1 y1_41 + 1 d1_33 <= 2 
-1 d1_33 + 1 y1_45 + 1 t1_33 >= 0 
d1_33 -1 y1_45 + 1 t1_33 >= 0 
d1_33 + 1 y1_45 -1 t1_33 >= 0 
d1_33 + 1 y1_45 + 1 t1_33 <= 2 
y1_42 -1 y1_34 + 1 d1_34 >= 0 
y1_34 -1 y1_42 + 1 d1_34 >= 0 
y1_42 + 1 y1_34 -1 d1_34 >= 0 
y1_34 + 1 y1_42 + 1 d1_34 <= 2 
-1 d1_34 + 1 y1_46 + 1 t1_34 >= 0 
d1_34 -1 y1_46 + 1 t1_34 >= 0 
d1_34 + 1 y1_46 -1 t1_34 >= 0 
d1_34 + 1 y1_46 + 1 t1_34 <= 2 
y1_39 -1 y1_35 + 1 d1_35 >= 0 
y1_35 -1 y1_39 + 1 d1_35 >= 0 
y1_39 + 1 y1_35 -1 d1_35 >= 0 
y1_35 + 1 y1_39 + 1 d1_35 <= 2 
-1 d1_35 + 1 y1_47 + 1 t1_35 >= 0 
d1_35 -1 y1_47 + 1 t1_35 >= 0 
d1_35 + 1 y1_47 -1 t1_35 >= 0 
d1_35 + 1 y1_47 + 1 t1_35 <= 2 
y1_36 -1 y1_32 + 1 d1_36 >= 0 
y1_32 -1 y1_36 + 1 d1_36 >= 0 
y1_36 + 1 y1_32 -1 d1_36 >= 0 
y1_32 + 1 y1_36 + 1 d1_36 <= 2 
-1 d1_36 + 1 y1_44 + 1 t1_36 >= 0 
d1_36 -1 y1_44 + 1 t1_36 >= 0 
d1_36 + 1 y1_44 -1 t1_36 >= 0 
d1_36 + 1 y1_44 + 1 t1_36 <= 2 
y1_37 -1 y1_33 + 1 d1_37 >= 0 
y1_33 -1 y1_37 + 1 d1_37 >= 0 
y1_37 + 1 y1_33 -1 d1_37 >= 0 
y1_33 + 1 y1_37 + 1 d1_37 <= 2 
-1 d1_37 + 1 y1_41 + 1 t1_37 >= 0 
d1_37 -1 y1_41 + 1 t1_37 >= 0 
d1_37 + 1 y1_41 -1 t1_37 >= 0 
d1_37 + 1 y1_41 + 1 t1_37 <= 2 
y1_42 -1 y1_38 + 1 d1_38 >= 0 
y1_38 -1 y1_42 + 1 d1_38 >= 0 
y1_42 + 1 y1_38 -1 d1_38 >= 0 
y1_38 + 1 y1_42 + 1 d1_38 <= 2 
-1 d1_38 + 1 y1_46 + 1 t1_38 >= 0 
d1_38 -1 y1_46 + 1 t1_38 >= 0 
d1_38 + 1 y1_46 -1 t1_38 >= 0 
d1_38 + 1 y1_46 + 1 t1_38 <= 2 
y1_43 -1 y1_35 + 1 d1_39 >= 0 
y1_35 -1 y1_43 + 1 d1_39 >= 0 
y1_43 + 1 y1_35 -1 d1_39 >= 0 
y1_35 + 1 y1_43 + 1 d1_39 <= 2 
-1 d1_39 + 1 y1_47 + 1 t1_39 >= 0 
d1_39 -1 y1_47 + 1 t1_39 >= 0 
d1_39 + 1 y1_47 -1 t1_39 >= 0 
d1_39 + 1 y1_47 + 1 t1_39 <= 2 
y1_40 -1 y1_32 + 1 d1_40 >= 0 
y1_32 -1 y1_40 + 1 d1_40 >= 0 
y1_40 + 1 y1_32 -1 d1_40 >= 0 
y1_32 + 1 y1_40 + 1 d1_40 <= 2 
-1 d1_40 + 1 y1_44 + 1 t1_40 >= 0 
d1_40 -1 y1_44 + 1 t1_40 >= 0 
d1_40 + 1 y1_44 -1 t1_40 >= 0 
d1_40 + 1 y1_44 + 1 t1_40 <= 2 
y1_37 -1 y1_33 + 1 d1_41 >= 0 
y1_33 -1 y1_37 + 1 d1_41 >= 0 
y1_37 + 1 y1_33 -1 d1_41 >= 0 
y1_33 + 1 y1_37 + 1 d1_41 <= 2 
-1 d1_41 + 1 y1_45 + 1 t1_41 >= 0 
d1_41 -1 y1_45 + 1 t1_41 >= 0 
d1_41 + 1 y1_45 -1 t1_41 >= 0 
d1_41 + 1 y1_45 + 1 t1_41 <= 2 
y1_38 -1 y1_34 + 1 d1_42 >= 0 
y1_34 -1 y1_38 + 1 d1_42 >= 0 
y1_38 + 1 y1_34 -1 d1_42 >= 0 
y1_34 + 1 y1_38 + 1 d1_42 <= 2 
-1 d1_42 + 1 y1_42 + 1 t1_42 >= 0 
d1_42 -1 y1_42 + 1 t1_42 >= 0 
d1_42 + 1 y1_42 -1 t1_42 >= 0 
d1_42 + 1 y1_42 + 1 t1_42 <= 2 
y1_43 -1 y1_39 + 1 d1_43 >= 0 
y1_39 -1 y1_43 + 1 d1_43 >= 0 
y1_43 + 1 y1_39 -1 d1_43 >= 0 
y1_39 + 1 y1_43 + 1 d1_43 <= 2 
-1 d1_43 + 1 y1_47 + 1 t1_43 >= 0 
d1_43 -1 y1_47 + 1 t1_43 >= 0 
d1_43 + 1 y1_47 -1 t1_43 >= 0 
d1_43 + 1 y1_47 + 1 t1_43 <= 2 
y1_40 -1 y1_36 + 1 d1_44 >= 0 
y1_36 -1 y1_40 + 1 d1_44 >= 0 
y1_40 + 1 y1_36 -1 d1_44 >= 0 
y1_36 + 1 y1_40 + 1 d1_44 <= 2 
-1 d1_44 + 1 y1_44 + 1 t1_44 >= 0 
d1_44 -1 y1_44 + 1 t1_44 >= 0 
d1_44 + 1 y1_44 -1 t1_44 >= 0 
d1_44 + 1 y1_44 + 1 t1_44 <= 2 
y1_41 -1 y1_33 + 1 d1_45 >= 0 
y1_33 -1 y1_41 + 1 d1_45 >= 0 
y1_41 + 1 y1_33 -1 d1_45 >= 0 
y1_33 + 1 y1_41 + 1 d1_45 <= 2 
-1 d1_45 + 1 y1_45 + 1 t1_45 >= 0 
d1_45 -1 y1_45 + 1 t1_45 >= 0 
d1_45 + 1 y1_45 -1 t1_45 >= 0 
d1_45 + 1 y1_45 + 1 t1_45 <= 2 
y1_38 -1 y1_34 + 1 d1_46 >= 0 
y1_34 -1 y1_38 + 1 d1_46 >= 0 
y1_38 + 1 y1_34 -1 d1_46 >= 0 
y1_34 + 1 y1_38 + 1 d1_46 <= 2 
-1 d1_46 + 1 y1_46 + 1 t1_46 >= 0 
d1_46 -1 y1_46 + 1 t1_46 >= 0 
d1_46 + 1 y1_46 -1 t1_46 >= 0 
d1_46 + 1 y1_46 + 1 t1_46 <= 2 
y1_39 -1 y1_35 + 1 d1_47 >= 0 
y1_35 -1 y1_39 + 1 d1_47 >= 0 
y1_39 + 1 y1_35 -1 d1_47 >= 0 
y1_35 + 1 y1_39 + 1 d1_47 <= 2 
-1 d1_47 + 1 y1_43 + 1 t1_47 >= 0 
d1_47 -1 y1_43 + 1 t1_47 >= 0 
d1_47 + 1 y1_43 -1 t1_47 >= 0 
d1_47 + 1 y1_43 + 1 t1_47 <= 2 
y1_56 -1 y1_52 + 1 d1_48 >= 0 
y1_52 -1 y1_56 + 1 d1_48 >= 0 
y1_56 + 1 y1_52 -1 d1_48 >= 0 
y1_52 + 1 y1_56 + 1 d1_48 <= 2 
-1 d1_48 + 1 y1_60 + 1 t1_48 >= 0 
d1_48 -1 y1_60 + 1 t1_48 >= 0 
d1_48 + 1 y1_60 -1 t1_48 >= 0 
d1_48 + 1 y1_60 + 1 t1_48 <= 2 
y1_57 -1 y1_49 + 1 d1_49 >= 0 
y1_49 -1 y1_57 + 1 d1_49 >= 0 
y1_57 + 1 y1_49 -1 d1_49 >= 0 
y1_49 + 1 y1_57 + 1 d1_49 <= 2 
-1 d1_49 + 1 y1_61 + 1 t1_49 >= 0 
d1_49 -1 y1_61 + 1 t1_49 >= 0 
d1_49 + 1 y1_61 -1 t1_49 >= 0 
d1_49 + 1 y1_61 + 1 t1_49 <= 2 
y1_54 -1 y1_50 + 1 d1_50 >= 0 
y1_50 -1 y1_54 + 1 d1_50 >= 0 
y1_54 + 1 y1_50 -1 d1_50 >= 0 
y1_50 + 1 y1_54 + 1 d1_50 <= 2 
-1 d1_50 + 1 y1_62 + 1 t1_50 >= 0 
d1_50 -1 y1_62 + 1 t1_50 >= 0 
d1_50 + 1 y1_62 -1 t1_50 >= 0 
d1_50 + 1 y1_62 + 1 t1_50 <= 2 
y1_55 -1 y1_51 + 1 d1_51 >= 0 
y1_51 -1 y1_55 + 1 d1_51 >= 0 
y1_55 + 1 y1_51 -1 d1_51 >= 0 
y1_51 + 1 y1_55 + 1 d1_51 <= 2 
-1 d1_51 + 1 y1_59 + 1 t1_51 >= 0 
d1_51 -1 y1_59 + 1 t1_51 >= 0 
d1_51 + 1 y1_59 -1 t1_51 >= 0 
d1_51 + 1 y1_59 + 1 t1_51 <= 2 
y1_52 -1 y1_48 + 1 d1_52 >= 0 
y1_48 -1 y1_52 + 1 d1_52 >= 0 
y1_52 + 1 y1_48 -1 d1_52 >= 0 
y1_48 + 1 y1_52 + 1 d1_52 <= 2 
-1 d1_52 + 1 y1_56 + 1 t1_52 >= 0 
d1_52 -1 y1_56 + 1 t1_52 >= 0 
d1_52 + 1 y1_56 -1 t1_52 >= 0 
d1_52 + 1 y1_56 + 1 t1_52 <= 2 
y1_57 -1 y1_53 + 1 d1_53 >= 0 
y1_53 -1 y1_57 + 1 d1_53 >= 0 
y1_57 + 1 y1_53 -1 d1_53 >= 0 
y1_53 + 1 y1_57 + 1 d1_53 <= 2 
-1 d1_53 + 1 y1_61 + 1 t1_53 >= 0 
d1_53 -1 y1_61 + 1 t1_53 >= 0 
d1_53 + 1 y1_61 -1 t1_53 >= 0 
d1_53 + 1 y1_61 + 1 t1_53 <= 2 
y1_58 -1 y1_50 + 1 d1_54 >= 0 
y1_50 -1 y1_58 + 1 d1_54 >= 0 
y1_58 + 1 y1_50 -1 d1_54 >= 0 
y1_50 + 1 y1_58 + 1 d1_54 <= 2 
-1 d1_54 + 1 y1_62 + 1 t1_54 >= 0 
d1_54 -1 y1_62 + 1 t1_54 >= 0 
d1_54 + 1 y1_62 -1 t1_54 >= 0 
d1_54 + 1 y1_62 + 1 t1_54 <= 2 
y1_55 -1 y1_51 + 1 d1_55 >= 0 
y1_51 -1 y1_55 + 1 d1_55 >= 0 
y1_55 + 1 y1_51 -1 d1_55 >= 0 
y1_51 + 1 y1_55 + 1 d1_55 <= 2 
-1 d1_55 + 1 y1_63 + 1 t1_55 >= 0 
d1_55 -1 y1_63 + 1 t1_55 >= 0 
d1_55 + 1 y1_63 -1 t1_55 >= 0 
d1_55 + 1 y1_63 + 1 t1_55 <= 2 
y1_52 -1 y1_48 + 1 d1_56 >= 0 
y1_48 -1 y1_52 + 1 d1_56 >= 0 
y1_52 + 1 y1_48 -1 d1_56 >= 0 
y1_48 + 1 y1_52 + 1 d1_56 <= 2 
-1 d1_56 + 1 y1_60 + 1 t1_56 >= 0 
d1_56 -1 y1_60 + 1 t1_56 >= 0 
d1_56 + 1 y1_60 -1 t1_56 >= 0 
d1_56 + 1 y1_60 + 1 t1_56 <= 2 
y1_53 -1 y1_49 + 1 d1_57 >= 0 
y1_49 -1 y1_53 + 1 d1_57 >= 0 
y1_53 + 1 y1_49 -1 d1_57 >= 0 
y1_49 + 1 y1_53 + 1 d1_57 <= 2 
-1 d1_57 + 1 y1_57 + 1 t1_57 >= 0 
d1_57 -1 y1_57 + 1 t1_57 >= 0 
d1_57 + 1 y1_57 -1 t1_57 >= 0 
d1_57 + 1 y1_57 + 1 t1_57 <= 2 
y1_58 -1 y1_54 + 1 d1_58 >= 0 
y1_54 -1 y1_58 + 1 d1_58 >= 0 
y1_58 + 1 y1_54 -1 d1_58 >= 0 
y1_54 + 1 y1_58 + 1 d1_58 <= 2 
-1 d1_58 + 1 y1_62 + 1 t1_58 >= 0 
d1_58 -1 y1_62 + 1 t1_58 >= 0 
d1_58 + 1 y1_62 -1 t1_58 >= 0 
d1_58 + 1 y1_62 + 1 t1_58 <= 2 
y1_59 -1 y1_51 + 1 d1_59 >= 0 
y1_51 -1 y1_59 + 1 d1_59 >= 0 
y1_59 + 1 y1_51 -1 d1_59 >= 0 
y1_51 + 1 y1_59 + 1 d1_59 <= 2 
-1 d1_59 + 1 y1_63 + 1 t1_59 >= 0 
d1_59 -1 y1_63 + 1 t1_59 >= 0 
d1_59 + 1 y1_63 -1 t1_59 >= 0 
d1_59 + 1 y1_63 + 1 t1_59 <= 2 
y1_56 -1 y1_48 + 1 d1_60 >= 0 
y1_48 -1 y1_56 + 1 d1_60 >= 0 
y1_56 + 1 y1_48 -1 d1_60 >= 0 
y1_48 + 1 y1_56 + 1 d1_60 <= 2 
-1 d1_60 + 1 y1_60 + 1 t1_60 >= 0 
d1_60 -1 y1_60 + 1 t1_60 >= 0 
d1_60 + 1 y1_60 -1 t1_60 >= 0 
d1_60 + 1 y1_60 + 1 t1_60 <= 2 
y1_53 -1 y1_49 + 1 d1_61 >= 0 
y1_49 -1 y1_53 + 1 d1_61 >= 0 
y1_53 + 1 y1_49 -1 d1_61 >= 0 
y1_49 + 1 y1_53 + 1 d1_61 <= 2 
-1 d1_61 + 1 y1_61 + 1 t1_61 >= 0 
d1_61 -1 y1_61 + 1 t1_61 >= 0 
d1_61 + 1 y1_61 -1 t1_61 >= 0 
d1_61 + 1 y1_61 + 1 t1_61 <= 2 
y1_54 -1 y1_50 + 1 d1_62 >= 0 
y1_50 -1 y1_54 + 1 d1_62 >= 0 
y1_54 + 1 y1_50 -1 d1_62 >= 0 
y1_50 + 1 y1_54 + 1 d1_62 <= 2 
-1 d1_62 + 1 y1_58 + 1 t1_62 >= 0 
d1_62 -1 y1_58 + 1 t1_62 >= 0 
d1_62 + 1 y1_58 -1 t1_62 >= 0 
d1_62 + 1 y1_58 + 1 t1_62 <= 2 
y1_59 -1 y1_55 + 1 d1_63 >= 0 
y1_55 -1 y1_59 + 1 d1_63 >= 0 
y1_59 + 1 y1_55 -1 d1_63 >= 0 
y1_55 + 1 y1_59 + 1 d1_63 <= 2 
-1 d1_63 + 1 y1_63 + 1 t1_63 >= 0 
d1_63 -1 y1_63 + 1 t1_63 >= 0 
d1_63 + 1 y1_63 -1 t1_63 >= 0 
d1_63 + 1 y1_63 + 1 t1_63 <= 2 
x2_0 - t1_0 = 0 
x2_1 - t1_1 = 0 
x2_2 - t1_2 = 0 
x2_3 - t1_3 = 0 
x2_4 - t1_20 = 0 
x2_5 - t1_21 = 0 
x2_6 - t1_22 = 0 
x2_7 - t1_23 = 0 
x2_8 - t1_40 = 0 
x2_9 - t1_41 = 0 
x2_10 - t1_42 = 0 
x2_11 - t1_43 = 0 
x2_12 - t1_60 = 0 
x2_13 - t1_61 = 0 
x2_14 - t1_62 = 0 
x2_15 - t1_63 = 0 
x2_16 - t1_16 = 0 
x2_17 - t1_17 = 0 
x2_18 - t1_18 = 0 
x2_19 - t1_19 = 0 
x2_20 - t1_36 = 0 
x2_21 - t1_37 = 0 
x2_22 - t1_38 = 0 
x2_23 - t1_39 = 0 
x2_24 - t1_56 = 0 
x2_25 - t1_57 = 0 
x2_26 - t1_58 = 0 
x2_27 - t1_59 = 0 
x2_28 - t1_12 = 0 
x2_29 - t1_13 = 0 
x2_30 - t1_14 = 0 
x2_31 - t1_15 = 0 
x2_32 - t1_32 = 0 
x2_33 - t1_33 = 0 
x2_34 - t1_34 = 0 
x2_35 - t1_35 = 0 
x2_36 - t1_52 = 0 
x2_37 - t1_53 = 0 
x2_38 - t1_54 = 0 
x2_39 - t1_55 = 0 
x2_40 - t1_8 = 0 
x2_41 - t1_9 = 0 
x2_42 - t1_10 = 0 
x2_43 - t1_11 = 0 
x2_44 - t1_28 = 0 
x2_45 - t1_29 = 0 
x2_46 - t1_30 = 0 
x2_47 - t1_31 = 0 
x2_48 - t1_48 = 0 
x2_49 - t1_49 = 0 
x2_50 - t1_50 = 0 
x2_51 - t1_51 = 0 
x2_52 - t1_4 = 0 
x2_53 - t1_5 = 0 
x2_54 - t1_6 = 0 
x2_55 - t1_7 = 0 
x2_56 - t1_24 = 0 
x2_57 - t1_25 = 0 
x2_58 - t1_26 = 0 
x2_59 - t1_27 = 0 
x2_60 - t1_44 = 0 
x2_61 - t1_45 = 0 
x2_62 - t1_46 = 0 
x2_63 - t1_47 = 0 
x2_0 + x2_1 + x2_2 + x2_3 - A2_0 >= 0 
A2_0 - x2_0 >= 0 
A2_0 - x2_1 >= 0 
A2_0 - x2_2 >= 0 
A2_0 - x2_3 >= 0 
x2_4 + x2_5 + x2_6 + x2_7 - A2_1 >= 0 
A2_1 - x2_4 >= 0 
A2_1 - x2_5 >= 0 
A2_1 - x2_6 >= 0 
A2_1 - x2_7 >= 0 
x2_8 + x2_9 + x2_10 + x2_11 - A2_2 >= 0 
A2_2 - x2_8 >= 0 
A2_2 - x2_9 >= 0 
A2_2 - x2_10 >= 0 
A2_2 - x2_11 >= 0 
x2_12 + x2_13 + x2_14 + x2_15 - A2_3 >= 0 
A2_3 - x2_12 >= 0 
A2_3 - x2_13 >= 0 
A2_3 - x2_14 >= 0 
A2_3 - x2_15 >= 0 
x2_16 + x2_17 + x2_18 + x2_19 - A2_4 >= 0 
A2_4 - x2_16 >= 0 
A2_4 - x2_17 >= 0 
A2_4 - x2_18 >= 0 
A2_4 - x2_19 >= 0 
x2_20 + x2_21 + x2_22 + x2_23 - A2_5 >= 0 
A2_5 - x2_20 >= 0 
A2_5 - x2_21 >= 0 
A2_5 - x2_22 >= 0 
A2_5 - x2_23 >= 0 
x2_24 + x2_25 + x2_26 + x2_27 - A2_6 >= 0 
A2_6 - x2_24 >= 0 
A2_6 - x2_25 >= 0 
A2_6 - x2_26 >= 0 
A2_6 - x2_27 >= 0 
x2_28 + x2_29 + x2_30 + x2_31 - A2_7 >= 0 
A2_7 - x2_28 >= 0 
A2_7 - x2_29 >= 0 
A2_7 - x2_30 >= 0 
A2_7 - x2_31 >= 0 
x2_32 + x2_33 + x2_34 + x2_35 - A2_8 >= 0 
A2_8 - x2_32 >= 0 
A2_8 - x2_33 >= 0 
A2_8 - x2_34 >= 0 
A2_8 - x2_35 >= 0 
x2_36 + x2_37 + x2_38 + x2_39 - A2_9 >= 0 
A2_9 - x2_36 >= 0 
A2_9 - x2_37 >= 0 
A2_9 - x2_38 >= 0 
A2_9 - x2_39 >= 0 
x2_40 + x2_41 + x2_42 + x2_43 - A2_10 >= 0 
A2_10 - x2_40 >= 0 
A2_10 - x2_41 >= 0 
A2_10 - x2_42 >= 0 
A2_10 - x2_43 >= 0 
x2_44 + x2_45 + x2_46 + x2_47 - A2_11 >= 0 
A2_11 - x2_44 >= 0 
A2_11 - x2_45 >= 0 
A2_11 - x2_46 >= 0 
A2_11 - x2_47 >= 0 
x2_48 + x2_49 + x2_50 + x2_51 - A2_12 >= 0 
A2_12 - x2_48 >= 0 
A2_12 - x2_49 >= 0 
A2_12 - x2_50 >= 0 
A2_12 - x2_51 >= 0 
x2_52 + x2_53 + x2_54 + x2_55 - A2_13 >= 0 
A2_13 - x2_52 >= 0 
A2_13 - x2_53 >= 0 
A2_13 - x2_54 >= 0 
A2_13 - x2_55 >= 0 
x2_56 + x2_57 + x2_58 + x2_59 - A2_14 >= 0 
A2_14 - x2_56 >= 0 
A2_14 - x2_57 >= 0 
A2_14 - x2_58 >= 0 
A2_14 - x2_59 >= 0 
x2_60 + x2_61 + x2_62 + x2_63 - A2_15 >= 0 
A2_15 - x2_60 >= 0 
A2_15 - x2_61 >= 0 
A2_15 - x2_62 >= 0 
A2_15 - x2_63 >= 0 
A0_0 + A0_1 + A0_2 + A0_3 + A0_4 + A0_5 + A0_6 + A0_7 + A0_8 + A0_9 + A0_10 + A0_11 + A0_12 + A0_13 + A0_14 + A0_15 <= 4
A1_0 + A1_1 + A1_2 + A1_3 + A1_4 + A1_5 + A1_6 + A1_7 + A1_8 + A1_9 + A1_10 + A1_11 + A1_12 + A1_13 + A1_14 + A1_15 <= 4
A2_0 + A2_1 + A2_2 + A2_3 + A2_4 + A2_5 + A2_6 + A2_7 + A2_8 + A2_9 + A2_10 + A2_11 + A2_12 + A2_13 + A2_14 + A2_15 <= 4
Binary
A0_0
A0_1
A0_2
A0_3
A0_4
A0_5
A0_6
A0_7
A0_8
A0_9
A0_10
A0_11
A0_12
A0_13
A0_14
A0_15
A1_0
A1_1
A1_2
A1_3
A1_4
A1_5
A1_6
A1_7
A1_8
A1_9
A1_10
A1_11
A1_12
A1_13
A1_14
A1_15
A2_0
A2_1
A2_2
A2_3
A2_4
A2_5
A2_6
A2_7
A2_8
A2_9
A2_10
A2_11
A2_12
A2_13
A2_14
A2_15
x0_0
x0_1
x0_2
x0_3
x0_4
x0_5
x0_6
x0_7
x0_8
x0_9
x0_10
x0_11
x0_12
x0_13
x0_14
x0_15
x0_16
x0_17
x0_18
x0_19
x0_20
x0_21
x0_22
x0_23
x0_24
x0_25
x0_26
x0_27
x0_28
x0_29
x0_30
x0_31
x0_32
x0_33
x0_34
x0_35
x0_36
x0_37
x0_38
x0_39
x0_40
x0_41
x0_42
x0_43
x0_44
x0_45
x0_46
x0_47
x0_48
x0_49
x0_50
x0_51
x0_52
x0_53
x0_54
x0_55
x0_56
x0_57
x0_58
x0_59
x0_60
x0_61
x0_62
x0_63
x1_0
x1_1
x1_2
x1_3
x1_4
x1_5
x1_6
x1_7
x1_8
x1_9
x1_10
x1_11
x1_12
x1_13
x1_14
x1_15
x1_16
x1_17
x1_18
x1_19
x1_20
x1_21
x1_22
x1_23
x1_24
x1_25
x1_26
x1_27
x1_28
x1_29
x1_30
x1_31
x1_32
x1_33
x1_34
x1_35
x1_36
x1_37
x1_38
x1_39
x1_40
x1_41
x1_42
x1_43
x1_44
x1_45
x1_46
x1_47
x1_48
x1_49
x1_50
x1_51
x1_52
x1_53
x1_54
x1_55
x1_56
x1_57
x1_58
x1_59
x1_60
x1_61
x1_62
x1_63
x2_0
x2_1
x2_2
x2_3
x2_4
x2_5
x2_6
x2_7
x2_8
x2_9
x2_10
x2_11
x2_12
x2_13
x2_14
x2_15
x2_16
x2_17
x2_18
x2_19
x2_20
x2_21
x2_22
x2_23
x2_24
x2_25
x2_26
x2_27
x2_28
x2_29
x2_30
x2_31
x2_32
x2_33
x2_34
x2_35
x2_36
x2_37
x2_38
x2_39
x2_40
x2_41
x2_42
x2_43
x2_44
x2_45
x2_46
x2_47
x2_48
x2_49
x2_50
x2_51
x2_52
x2_53
x2_54
x2_55
x2_56
x2_57
x2_58
x2_59
x2_60
x2_61
x2_62
x2_63
y0_0
y0_1
y0_2
y0_3
y0_4
y0_5
y0_6
y0_7
y0_8
y0_9
y0_10
y0_11
y0_12
y0_13
y0_14
y0_15
y0_16
y0_17
y0_18
y0_19
y0_20
y0_21
y0_22
y0_23
y0_24
y0_25
y0_26
y0_27
y0_28
y0_29
y0_30
y0_31
y0_32
y0_33
y0_34
y0_35
y0_36
y0_37
y0_38
y0_39
y0_40
y0_41
y0_42
y0_43
y0_44
y0_45
y0_46
y0_47
y0_48
y0_49
y0_50
y0_51
y0_52
y0_53
y0_54
y0_55
y0_56
y0_57
y0_58
y0_59
y0_60
y0_61
y0_62
y0_63
y1_0
y1_1
y1_2
y1_3
y1_4
y1_5
y1_6
y1_7
y1_8
y1_9
y1_10
y1_11
y1_12
y1_13
y1_14
y1_15
y1_16
y1_17
y1_18
y1_19
y1_20
y1_21
y1_22
y1_23
y1_24
y1_25
y1_26
y1_27
y1_28
y1_29
y1_30
y1_31
y1_32
y1_33
y1_34
y1_35
y1_36
y1_37
y1_38
y1_39
y1_40
y1_41
y1_42
y1_43
y1_44
y1_45
y1_46
y1_47
y1_48
y1_49
y1_50
y1_51
y1_52
y1_53
y1_54
y1_55
y1_56
y1_57
y1_58
y1_59
y1_60
y1_61
y1_62
y1_63
y2_0
y2_1
y2_2
y2_3
y2_4
y2_5
y2_6
y2_7
y2_8
y2_9
y2_10
y2_11
y2_12
y2_13
y2_14
y2_15
y2_16
y2_17
y2_18
y2_19
y2_20
y2_21
y2_22
y2_23
y2_24
y2_25
y2_26
y2_27
y2_28
y2_29
y2_30
y2_31
y2_32
y2_33
y2_34
y2_35
y2_36
y2_37
y2_38
y2_39
y2_40
y2_41
y2_42
y2_43
y2_44
y2_45
y2_46
y2_47
y2_48
y2_49
y2_50
y2_51
y2_52
y2_53
y2_54
y2_55
y2_56
y2_57
y2_58
y2_59
y2_60
y2_61
y2_62
y2_63
t0_0
t0_1
t0_2
t0_3
t0_4
t0_5
t0_6
t0_7
t0_8
t0_9
t0_10
t0_11
t0_12
t0_13
t0_14
t0_15
t0_16
t0_17
t0_18
t0_19
t0_20
t0_21
t0_22
t0_23
t0_24
t0_25
t0_26
t0_27
t0_28
t0_29
t0_30
t0_31
t0_32
t0_33
t0_34
t0_35
t0_36
t0_37
t0_38
t0_39
t0_40
t0_41
t0_42
t0_43
t0_44
t0_45
t0_46
t0_47
t0_48
t0_49
t0_50
t0_51
t0_52
t0_53
t0_54
t0_55
t0_56
t0_57
t0_58
t0_59
t0_60
t0_61
t0_62
t0_63
t1_0
t1_1
t1_2
t1_3
t1_4
t1_5
t1_6
t1_7
t1_8
t1_9
t1_10
t1_11
t1_12
t1_13
t1_14
t1_15
t1_16
t1_17
t1_18
t1_19
t1_20
t1_21
t1_22
t1_23
t1_24
t1_25
t1_26
t1_27
t1_28
t1_29
t1_30
t1_31
t1_32
t1_33
t1_34
t1_35
t1_36
t1_37
t1_38
t1_39
t1_40
t1_41
t1_42
t1_43
t1_44
t1_45
t1_46
t1_47
t1_48
t1_49
t1_50
t1_51
t1_52
t1_53
t1_54
t1_55
t1_56
t1_57
t1_58
t1_59
t1_60
t1_61
t1_62
t1_63
d0_0
d0_1
d0_2
d0_3
d0_4
d0_5
d0_6
d0_7
d0_8
d0_9
d0_10
d0_11
d0_12
d0_13
d0_14
d0_15
d0_16
d0_17
d0_18
d0_19
d0_20
d0_21
d0_22
d0_23
d0_24
d0_25
d0_26
d0_27
d0_28
d0_29
d0_30
d0_31
d0_32
d0_33
d0_34
d0_35
d0_36
d0_37
d0_38
d0_39
d0_40
d0_41
d0_42
d0_43
d0_44
d0_45
d0_46
d0_47
d0_48
d0_49
d0_50
d0_51
d0_52
d0_53
d0_54
d0_55
d0_56
d0_57
d0_58
d0_59
d0_60
d0_61
d0_62
d0_63
d1_0
d1_1
d1_2
d1_3
d1_4
d1_5
d1_6
d1_7
d1_8
d1_9
d1_10
d1_11
d1_12
d1_13
d1_14
d1_15
d1_16
d1_17
d1_18
d1_19
d1_20
d1_21
d1_22
d1_23
d1_24
d1_25
d1_26
d1_27
d1_28
d1_29
d1_30
d1_31
d1_32
d1_33
d1_34
d1_35
d1_36
d1_37
d1_38
d1_39
d1_40
d1_41
d1_42
d1_43
d1_44
d1_45
d1_46
d1_47
d1_48
d1_49
d1_50
d1_51
d1_52
d1_53
d1_54
d1_55
d1_56
d1_57
d1_58
d1_59
d1_60
d1_61
d1_62
d1_63
p0_0_0
p0_0_1
p0_0_2
p0_0_3
p0_0_4
p0_0_5
p0_0_6
p0_0_7
p0_0_8
p0_0_9
p0_0_10
p0_0_11
p0_0_12
p0_0_13
p0_0_14
p0_0_15
p0_1_0
p0_1_1
p0_1_2
p0_1_3
p0_1_4
p0_1_5
p0_1_6
p0_1_7
p0_1_8
p0_1_9
p0_1_10
p0_1_11
p0_1_12
p0_1_13
p0_1_14
p0_1_15
p0_2_0
p0_2_1
p0_2_2
p0_2_3
p0_2_4
p0_2_5
p0_2_6
p0_2_7
p0_2_8
p0_2_9
p0_2_10
p0_2_11
p0_2_12
p0_2_13
p0_2_14
p0_2_15
p1_0_0
p1_0_1
p1_0_2
p1_0_3
p1_0_4
p1_0_5
p1_0_6
p1_0_7
p1_0_8
p1_0_9
p1_0_10
p1_0_11
p1_0_12
p1_0_13
p1_0_14
p1_0_15
p1_1_0
p1_1_1
p1_1_2
p1_1_3
p1_1_4
p1_1_5
p1_1_6
p1_1_7
p1_1_8
p1_1_9
p1_1_10
p1_1_11
p1_1_12
p1_1_13
p1_1_14
p1_1_15
p1_2_0
p1_2_1
p1_2_2
p1_2_3
p1_2_4
p1_2_5
p1_2_6
p1_2_7
p1_2_8
p1_2_9
p1_2_10
p1_2_11
p1_2_12
p1_2_13
p1_2_14
p1_2_15
End
